! Generated by EMerge - 2-port S-parameters
! File generated: 2026-08-31 06:55 
! Hairpin bandpass filter
! Wres  = 0.8500 mm
! Lin   = 3.0000 mm
! Lstub = 6.5000 mm
! Lside = 6.0000 mm
! L1 = 15.2000 mm, S1 = 0.1000 mm
! L2 = 15.4200 mm, S2 = 0.4000 mm
# GHz S RI R 50
2.000000e+00  5.134401e-01  8.409237e-01  -1.104044e-02  6.781009e-03  -1.103934e-02  6.780338e-03  5.016740e-01  8.481724e-01
2.000500e+00  5.151743e-01  8.398707e-01  -1.107273e-02  6.831781e-03  -1.107163e-02  6.831105e-03  5.033601e-01  8.471822e-01
2.001000e+00  5.169079e-01  8.388131e-01  -1.110508e-02  6.882880e-03  -1.110398e-02  6.882199e-03  5.050456e-01  8.461877e-01
2.001500e+00  5.186411e-01  8.377508e-01  -1.113749e-02  6.934309e-03  -1.113638e-02  6.933622e-03  5.067307e-01  8.451888e-01
2.002000e+00  5.203738e-01  8.366838e-01  -1.116995e-02  6.986068e-03  -1.116884e-02  6.985377e-03  5.084153e-01  8.441857e-01
2.002500e+00  5.221060e-01  8.356122e-01  -1.120247e-02  7.038162e-03  -1.120135e-02  7.037465e-03  5.100994e-01  8.431783e-01
2.003000e+00  5.238377e-01  8.345358e-01  -1.123504e-02  7.090591e-03  -1.123392e-02  7.089889e-03  5.117830e-01  8.421666e-01
2.003500e+00  5.255689e-01  8.334547e-01  -1.126767e-02  7.143358e-03  -1.126655e-02  7.142651e-03  5.134661e-01  8.411506e-01
2.004000e+00  5.272995e-01  8.323689e-01  -1.130035e-02  7.196465e-03  -1.129922e-02  7.195752e-03  5.151487e-01  8.401302e-01
2.004500e+00  5.290296e-01  8.312784e-01  -1.133308e-02  7.249913e-03  -1.133196e-02  7.249196e-03  5.168307e-01  8.391055e-01
2.005000e+00  5.307591e-01  8.301832e-01  -1.136587e-02  7.303706e-03  -1.136474e-02  7.302984e-03  5.185122e-01  8.380765e-01
2.005500e+00  5.324881e-01  8.290832e-01  -1.139871e-02  7.357846e-03  -1.139758e-02  7.357118e-03  5.201932e-01  8.370431e-01
2.006000e+00  5.342165e-01  8.279784e-01  -1.143160e-02  7.412334e-03  -1.143047e-02  7.411600e-03  5.218736e-01  8.360054e-01
2.006500e+00  5.359443e-01  8.268689e-01  -1.146455e-02  7.467173e-03  -1.146341e-02  7.466434e-03  5.235534e-01  8.349633e-01
2.007000e+00  5.376715e-01  8.257546e-01  -1.149754e-02  7.522364e-03  -1.149640e-02  7.521620e-03  5.252326e-01  8.339168e-01
2.007500e+00  5.393981e-01  8.246356e-01  -1.153059e-02  7.577911e-03  -1.152944e-02  7.577161e-03  5.269113e-01  8.328660e-01
2.008000e+00  5.411241e-01  8.235117e-01  -1.156369e-02  7.633816e-03  -1.156254e-02  7.633060e-03  5.285894e-01  8.318107e-01
2.008500e+00  5.428495e-01  8.223830e-01  -1.159683e-02  7.690080e-03  -1.159568e-02  7.689319e-03  5.302668e-01  8.307511e-01
2.009000e+00  5.445742e-01  8.212496e-01  -1.163003e-02  7.746706e-03  -1.162887e-02  7.745940e-03  5.319437e-01  8.296870e-01
2.009500e+00  5.462984e-01  8.201113e-01  -1.166327e-02  7.803697e-03  -1.166211e-02  7.802924e-03  5.336200e-01  8.286186e-01
2.010000e+00  5.480218e-01  8.189682e-01  -1.169656e-02  7.861054e-03  -1.169540e-02  7.860276e-03  5.352956e-01  8.275457e-01
2.010500e+00  5.497446e-01  8.178202e-01  -1.172990e-02  7.918780e-03  -1.172874e-02  7.917996e-03  5.369706e-01  8.264684e-01
2.011000e+00  5.514667e-01  8.166674e-01  -1.176329e-02  7.976877e-03  -1.176212e-02  7.976088e-03  5.386449e-01  8.253867e-01
2.011500e+00  5.531881e-01  8.155097e-01  -1.179672e-02  8.035348e-03  -1.179555e-02  8.034553e-03  5.403186e-01  8.243005e-01
2.012000e+00  5.549089e-01  8.143472e-01  -1.183020e-02  8.094195e-03  -1.182902e-02  8.093394e-03  5.419917e-01  8.232099e-01
2.012500e+00  5.566289e-01  8.131798e-01  -1.186372e-02  8.153421e-03  -1.186254e-02  8.152613e-03  5.436640e-01  8.221148e-01
2.013000e+00  5.583482e-01  8.120075e-01  -1.189729e-02  8.213026e-03  -1.189610e-02  8.212213e-03  5.453357e-01  8.210152e-01
2.013500e+00  5.600668e-01  8.108303e-01  -1.193090e-02  8.273016e-03  -1.192971e-02  8.272197e-03  5.470067e-01  8.199112e-01
2.014000e+00  5.617846e-01  8.096482e-01  -1.196455e-02  8.333390e-03  -1.196336e-02  8.332565e-03  5.486770e-01  8.188026e-01
2.014500e+00  5.635017e-01  8.084612e-01  -1.199825e-02  8.394153e-03  -1.199705e-02  8.393322e-03  5.503466e-01  8.176896e-01
2.015000e+00  5.652181e-01  8.072693e-01  -1.203198e-02  8.455306e-03  -1.203079e-02  8.454469e-03  5.520155e-01  8.165721e-01
2.015500e+00  5.669336e-01  8.060724e-01  -1.206576e-02  8.516852e-03  -1.206456e-02  8.516009e-03  5.536836e-01  8.154501e-01
2.016000e+00  5.686484e-01  8.048706e-01  -1.209958e-02  8.578794e-03  -1.209838e-02  8.577944e-03  5.553510e-01  8.143235e-01
2.016500e+00  5.703624e-01  8.036638e-01  -1.213344e-02  8.641133e-03  -1.213223e-02  8.640277e-03  5.570177e-01  8.131925e-01
2.017000e+00  5.720756e-01  8.024521e-01  -1.216734e-02  8.703873e-03  -1.216613e-02  8.703011e-03  5.586836e-01  8.120569e-01
2.017500e+00  5.737879e-01  8.012354e-01  -1.220128e-02  8.767016e-03  -1.220006e-02  8.766148e-03  5.603488e-01  8.109167e-01
2.018000e+00  5.754995e-01  8.000137e-01  -1.223525e-02  8.830564e-03  -1.223403e-02  8.829690e-03  5.620132e-01  8.097720e-01
2.018500e+00  5.772102e-01  7.987870e-01  -1.226926e-02  8.894520e-03  -1.226804e-02  8.893640e-03  5.636768e-01  8.086228e-01
2.019000e+00  5.789200e-01  7.975553e-01  -1.230331e-02  8.958887e-03  -1.230208e-02  8.958000e-03  5.653396e-01  8.074690e-01
2.019500e+00  5.806290e-01  7.963186e-01  -1.233739e-02  9.023668e-03  -1.233616e-02  9.022774e-03  5.670016e-01  8.063106e-01
2.020000e+00  5.823371e-01  7.950769e-01  -1.237150e-02  9.088864e-03  -1.237027e-02  9.087964e-03  5.686628e-01  8.051476e-01
2.020500e+00  5.840443e-01  7.938302e-01  -1.240565e-02  9.154479e-03  -1.240442e-02  9.153572e-03  5.703231e-01  8.039800e-01
2.021000e+00  5.857507e-01  7.925784e-01  -1.243984e-02  9.220515e-03  -1.243860e-02  9.219602e-03  5.719827e-01  8.028079e-01
2.021500e+00  5.874561e-01  7.913215e-01  -1.247405e-02  9.286975e-03  -1.247281e-02  9.286055e-03  5.736414e-01  8.016311e-01
2.022000e+00  5.891606e-01  7.900596e-01  -1.250830e-02  9.353861e-03  -1.250705e-02  9.352935e-03  5.752992e-01  8.004497e-01
2.022500e+00  5.908642e-01  7.887926e-01  -1.254258e-02  9.421176e-03  -1.254133e-02  9.420244e-03  5.769562e-01  7.992637e-01
2.023000e+00  5.925668e-01  7.875205e-01  -1.257688e-02  9.488924e-03  -1.257563e-02  9.487984e-03  5.786123e-01  7.980730e-01
2.023500e+00  5.942685e-01  7.862434e-01  -1.261122e-02  9.557106e-03  -1.260996e-02  9.556160e-03  5.802676e-01  7.968777e-01
2.024000e+00  5.959692e-01  7.849611e-01  -1.264558e-02  9.625726e-03  -1.264432e-02  9.624772e-03  5.819219e-01  7.956778e-01
2.024500e+00  5.976689e-01  7.836737e-01  -1.267997e-02  9.694785e-03  -1.267871e-02  9.693825e-03  5.835754e-01  7.944731e-01
2.025000e+00  5.993676e-01  7.823812e-01  -1.271439e-02  9.764288e-03  -1.271312e-02  9.763321e-03  5.852279e-01  7.932639e-01
2.025500e+00  6.010654e-01  7.810836e-01  -1.274883e-02  9.834237e-03  -1.274756e-02  9.833263e-03  5.868795e-01  7.920499e-01
2.026000e+00  6.027621e-01  7.797808e-01  -1.278329e-02  9.904634e-03  -1.278202e-02  9.903653e-03  5.885302e-01  7.908313e-01
2.026500e+00  6.044578e-01  7.784729e-01  -1.281778e-02  9.975483e-03  -1.281651e-02  9.974495e-03  5.901800e-01  7.896079e-01
2.027000e+00  6.061524e-01  7.771598e-01  -1.285229e-02  1.004679e-02  -1.285101e-02  1.004579e-02  5.918287e-01  7.883799e-01
2.027500e+00  6.078460e-01  7.758416e-01  -1.288682e-02  1.011855e-02  -1.288554e-02  1.011754e-02  5.934766e-01  7.871471e-01
2.028000e+00  6.095385e-01  7.745181e-01  -1.292138e-02  1.019077e-02  -1.292009e-02  1.018976e-02  5.951234e-01  7.859097e-01
2.028500e+00  6.112300e-01  7.731895e-01  -1.295595e-02  1.026345e-02  -1.295466e-02  1.026243e-02  5.967693e-01  7.846675e-01
2.029000e+00  6.129203e-01  7.718556e-01  -1.299054e-02  1.033660e-02  -1.298925e-02  1.033558e-02  5.984142e-01  7.834205e-01
2.029500e+00  6.146096e-01  7.705166e-01  -1.302515e-02  1.041022e-02  -1.302385e-02  1.040919e-02  6.000581e-01  7.821689e-01
2.030000e+00  6.162977e-01  7.691723e-01  -1.305977e-02  1.048431e-02  -1.305847e-02  1.048327e-02  6.017009e-01  7.809124e-01
2.030500e+00  6.179847e-01  7.678228e-01  -1.309441e-02  1.055887e-02  -1.309311e-02  1.055783e-02  6.033428e-01  7.796512e-01
2.031000e+00  6.196706e-01  7.664680e-01  -1.312906e-02  1.063391e-02  -1.312776e-02  1.063286e-02  6.049836e-01  7.783853e-01
2.031500e+00  6.213553e-01  7.651080e-01  -1.316373e-02  1.070944e-02  -1.316242e-02  1.070838e-02  6.066233e-01  7.771145e-01
2.032000e+00  6.230388e-01  7.637427e-01  -1.319841e-02  1.078545e-02  -1.319709e-02  1.078438e-02  6.082620e-01  7.758390e-01
2.032500e+00  6.247212e-01  7.623721e-01  -1.323310e-02  1.086194e-02  -1.323178e-02  1.086087e-02  6.098996e-01  7.745586e-01
2.033000e+00  6.264024e-01  7.609963e-01  -1.326779e-02  1.093893e-02  -1.326647e-02  1.093784e-02  6.115362e-01  7.732735e-01
2.033500e+00  6.280823e-01  7.596152e-01  -1.330250e-02  1.101640e-02  -1.330118e-02  1.101531e-02  6.131716e-01  7.719835e-01
2.034000e+00  6.297611e-01  7.582287e-01  -1.333722e-02  1.109438e-02  -1.333589e-02  1.109328e-02  6.148060e-01  7.706887e-01
2.034500e+00  6.314386e-01  7.568369e-01  -1.337194e-02  1.117285e-02  -1.337061e-02  1.117175e-02  6.164392e-01  7.693891e-01
2.035000e+00  6.331148e-01  7.554398e-01  -1.340666e-02  1.125183e-02  -1.340533e-02  1.125072e-02  6.180713e-01  7.680846e-01
2.035500e+00  6.347898e-01  7.540374e-01  -1.344139e-02  1.133131e-02  -1.344005e-02  1.133019e-02  6.197023e-01  7.667753e-01
2.036000e+00  6.364635e-01  7.526296e-01  -1.347612e-02  1.141130e-02  -1.347478e-02  1.141017e-02  6.213321e-01  7.654611e-01
2.036500e+00  6.381359e-01  7.512165e-01  -1.351086e-02  1.149181e-02  -1.350951e-02  1.149067e-02  6.229608e-01  7.641421e-01
2.037000e+00  6.398071e-01  7.497980e-01  -1.354559e-02  1.157283e-02  -1.354424e-02  1.157168e-02  6.245883e-01  7.628181e-01
2.037500e+00  6.414769e-01  7.483741e-01  -1.358032e-02  1.165437e-02  -1.357897e-02  1.165321e-02  6.262146e-01  7.614893e-01
2.038000e+00  6.431453e-01  7.469448e-01  -1.361505e-02  1.173643e-02  -1.361370e-02  1.173526e-02  6.278397e-01  7.601556e-01
2.038500e+00  6.448125e-01  7.455101e-01  -1.364978e-02  1.181901e-02  -1.364842e-02  1.181784e-02  6.294636e-01  7.588170e-01
2.039000e+00  6.464782e-01  7.440700e-01  -1.368450e-02  1.190213e-02  -1.368314e-02  1.190095e-02  6.310863e-01  7.574734e-01
2.039500e+00  6.481426e-01  7.426245e-01  -1.371921e-02  1.198577e-02  -1.371785e-02  1.198459e-02  6.327078e-01  7.561250e-01
2.040000e+00  6.498056e-01  7.411735e-01  -1.375392e-02  1.206996e-02  -1.375255e-02  1.206876e-02  6.343280e-01  7.547716e-01
2.040500e+00  6.514672e-01  7.397171e-01  -1.378861e-02  1.215468e-02  -1.378724e-02  1.215347e-02  6.359470e-01  7.534132e-01
2.041000e+00  6.531274e-01  7.382553e-01  -1.382330e-02  1.223994e-02  -1.382192e-02  1.223873e-02  6.375647e-01  7.520499e-01
2.041500e+00  6.547862e-01  7.367880e-01  -1.385797e-02  1.232575e-02  -1.385659e-02  1.232453e-02  6.391811e-01  7.506817e-01
2.042000e+00  6.564435e-01  7.353152e-01  -1.389263e-02  1.241211e-02  -1.389125e-02  1.241088e-02  6.407963e-01  7.493084e-01
2.042500e+00  6.580993e-01  7.338369e-01  -1.392727e-02  1.249902e-02  -1.392589e-02  1.249778e-02  6.424101e-01  7.479302e-01
2.043000e+00  6.597537e-01  7.323531e-01  -1.396190e-02  1.258649e-02  -1.396051e-02  1.258524e-02  6.440227e-01  7.465470e-01
2.043500e+00  6.614066e-01  7.308638e-01  -1.399651e-02  1.267451e-02  -1.399512e-02  1.267326e-02  6.456339e-01  7.451588e-01
2.044000e+00  6.630580e-01  7.293690e-01  -1.403110e-02  1.276311e-02  -1.402970e-02  1.276184e-02  6.472438e-01  7.437656e-01
2.044500e+00  6.647078e-01  7.278687e-01  -1.406567e-02  1.285226e-02  -1.406427e-02  1.285099e-02  6.488523e-01  7.423674e-01
2.045000e+00  6.663562e-01  7.263628e-01  -1.410021e-02  1.294199e-02  -1.409881e-02  1.294071e-02  6.504594e-01  7.409641e-01
2.045500e+00  6.680029e-01  7.248513e-01  -1.413473e-02  1.303229e-02  -1.413333e-02  1.303100e-02  6.520652e-01  7.395559e-01
2.046000e+00  6.696481e-01  7.233343e-01  -1.416923e-02  1.312317e-02  -1.416782e-02  1.312187e-02  6.536696e-01  7.381425e-01
2.046500e+00  6.712918e-01  7.218118e-01  -1.420369e-02  1.321463e-02  -1.420228e-02  1.321333e-02  6.552726e-01  7.367241e-01
2.047000e+00  6.729338e-01  7.202836e-01  -1.423813e-02  1.330668e-02  -1.423671e-02  1.330536e-02  6.568742e-01  7.353007e-01
2.047500e+00  6.745742e-01  7.187499e-01  -1.427253e-02  1.339932e-02  -1.427111e-02  1.339799e-02  6.584744e-01  7.338722e-01
2.048000e+00  6.762130e-01  7.172105e-01  -1.430691e-02  1.349254e-02  -1.430548e-02  1.349121e-02  6.600731e-01  7.324386e-01
2.048500e+00  6.778502e-01  7.156655e-01  -1.434125e-02  1.358637e-02  -1.433982e-02  1.358502e-02  6.616704e-01  7.309999e-01
2.049000e+00  6.794857e-01  7.141149e-01  -1.437555e-02  1.368079e-02  -1.437412e-02  1.367944e-02  6.632662e-01  7.295560e-01
2.049500e+00  6.811195e-01  7.125587e-01  -1.440981e-02  1.377582e-02  -1.440838e-02  1.377446e-02  6.648605e-01  7.281071e-01
2.050000e+00  6.827517e-01  7.109968e-01  -1.444403e-02  1.387146e-02  -1.444260e-02  1.387008e-02  6.664534e-01  7.266531e-01
2.050500e+00  6.843821e-01  7.094292e-01  -1.447822e-02  1.396771e-02  -1.447678e-02  1.396632e-02  6.680447e-01  7.251939e-01
2.051000e+00  6.860108e-01  7.078560e-01  -1.451235e-02  1.406457e-02  -1.451091e-02  1.406318e-02  6.696346e-01  7.237296e-01
2.051500e+00  6.876378e-01  7.062771e-01  -1.454645e-02  1.416205e-02  -1.454500e-02  1.416065e-02  6.712229e-01  7.222601e-01
2.052000e+00  6.892630e-01  7.046925e-01  -1.458049e-02  1.426016e-02  -1.457904e-02  1.425874e-02  6.728096e-01  7.207855e-01
2.052500e+00  6.908864e-01  7.031022e-01  -1.461449e-02  1.435889e-02  -1.461303e-02  1.435747e-02  6.743948e-01  7.193057e-01
2.053000e+00  6.925081e-01  7.015061e-01  -1.464843e-02  1.445826e-02  -1.464698e-02  1.445682e-02  6.759784e-01  7.178207e-01
2.053500e+00  6.941279e-01  6.999044e-01  -1.468232e-02  1.455826e-02  -1.468086e-02  1.455681e-02  6.775605e-01  7.163306e-01
2.054000e+00  6.957460e-01  6.982969e-01  -1.471616e-02  1.465890e-02  -1.471470e-02  1.465744e-02  6.791409e-01  7.148352e-01
2.054500e+00  6.973622e-01  6.966836e-01  -1.474994e-02  1.476018e-02  -1.474847e-02  1.475872e-02  6.807198e-01  7.133346e-01
2.055000e+00  6.989765e-01  6.950646e-01  -1.478366e-02  1.486211e-02  -1.478219e-02  1.486064e-02  6.822970e-01  7.118288e-01
2.055500e+00  7.005890e-01  6.934398e-01  -1.481731e-02  1.496469e-02  -1.481584e-02  1.496321e-02  6.838726e-01  7.103178e-01
2.056000e+00  7.021996e-01  6.918092e-01  -1.485091e-02  1.506793e-02  -1.484943e-02  1.506644e-02  6.854465e-01  7.088016e-01
2.056500e+00  7.038083e-01  6.901729e-01  -1.488444e-02  1.517183e-02  -1.488296e-02  1.517032e-02  6.870187e-01  7.072801e-01
2.057000e+00  7.054150e-01  6.885307e-01  -1.491790e-02  1.527639e-02  -1.491641e-02  1.527488e-02  6.885893e-01  7.057533e-01
2.057500e+00  7.070198e-01  6.868827e-01  -1.495129e-02  1.538162e-02  -1.494980e-02  1.538010e-02  6.901582e-01  7.042212e-01
2.058000e+00  7.086227e-01  6.852289e-01  -1.498460e-02  1.548752e-02  -1.498311e-02  1.548599e-02  6.917254e-01  7.026839e-01
2.058500e+00  7.102236e-01  6.835692e-01  -1.501785e-02  1.559410e-02  -1.501635e-02  1.559256e-02  6.932908e-01  7.011413e-01
2.059000e+00  7.118225e-01  6.819037e-01  -1.505101e-02  1.570136e-02  -1.504951e-02  1.569981e-02  6.948546e-01  6.995934e-01
2.059500e+00  7.134194e-01  6.802323e-01  -1.508410e-02  1.580931e-02  -1.508260e-02  1.580774e-02  6.964165e-01  6.980402e-01
2.060000e+00  7.150142e-01  6.785551e-01  -1.511710e-02  1.591795e-02  -1.511560e-02  1.591637e-02  6.979767e-01  6.964817e-01
2.060500e+00  7.166070e-01  6.768719e-01  -1.515002e-02  1.602728e-02  -1.514852e-02  1.602569e-02  6.995351e-01  6.949178e-01
2.061000e+00  7.181978e-01  6.751829e-01  -1.518286e-02  1.613731e-02  -1.518135e-02  1.613571e-02  7.010917e-01  6.933486e-01
2.061500e+00  7.197865e-01  6.734879e-01  -1.521560e-02  1.624804e-02  -1.521409e-02  1.624643e-02  7.026466e-01  6.917741e-01
2.062000e+00  7.213730e-01  6.717870e-01  -1.524826e-02  1.635948e-02  -1.524674e-02  1.635786e-02  7.041995e-01  6.901942e-01
2.062500e+00  7.229575e-01  6.700802e-01  -1.528082e-02  1.647163e-02  -1.527930e-02  1.647000e-02  7.057507e-01  6.886089e-01
2.063000e+00  7.245398e-01  6.683675e-01  -1.531328e-02  1.658450e-02  -1.531176e-02  1.658286e-02  7.073000e-01  6.870182e-01
2.063500e+00  7.261200e-01  6.666488e-01  -1.534565e-02  1.669809e-02  -1.534412e-02  1.669644e-02  7.088474e-01  6.854222e-01
2.064000e+00  7.276980e-01  6.649241e-01  -1.537791e-02  1.681241e-02  -1.537638e-02  1.681074e-02  7.103929e-01  6.838207e-01
2.064500e+00  7.292738e-01  6.631934e-01  -1.541007e-02  1.692745e-02  -1.540854e-02  1.692577e-02  7.119366e-01  6.822139e-01
2.065000e+00  7.308474e-01  6.614568e-01  -1.544213e-02  1.704323e-02  -1.544059e-02  1.704154e-02  7.134783e-01  6.806016e-01
2.065500e+00  7.324187e-01  6.597141e-01  -1.547407e-02  1.715975e-02  -1.547253e-02  1.715805e-02  7.150181e-01  6.789839e-01
2.066000e+00  7.339878e-01  6.579655e-01  -1.550590e-02  1.727702e-02  -1.550436e-02  1.727531e-02  7.165559e-01  6.773608e-01
2.066500e+00  7.355547e-01  6.562108e-01  -1.553762e-02  1.739503e-02  -1.553607e-02  1.739331e-02  7.180918e-01  6.757321e-01
2.067000e+00  7.371192e-01  6.544501e-01  -1.556922e-02  1.751380e-02  -1.556767e-02  1.751206e-02  7.196257e-01  6.740981e-01
2.067500e+00  7.386815e-01  6.526833e-01  -1.560069e-02  1.763333e-02  -1.559914e-02  1.763158e-02  7.211576e-01  6.724585e-01
2.068000e+00  7.402414e-01  6.509105e-01  -1.563205e-02  1.775362e-02  -1.563049e-02  1.775186e-02  7.226875e-01  6.708135e-01
2.068500e+00  7.417990e-01  6.491315e-01  -1.566327e-02  1.787467e-02  -1.566172e-02  1.787290e-02  7.242153e-01  6.691630e-01
2.069000e+00  7.433542e-01  6.473466e-01  -1.569437e-02  1.799651e-02  -1.569281e-02  1.799472e-02  7.257412e-01  6.675070e-01
2.069500e+00  7.449070e-01  6.455555e-01  -1.572534e-02  1.811912e-02  -1.572377e-02  1.811732e-02  7.272649e-01  6.658455e-01
2.070000e+00  7.464574e-01  6.437583e-01  -1.575617e-02  1.824251e-02  -1.575460e-02  1.824070e-02  7.287866e-01  6.641784e-01
2.070500e+00  7.480054e-01  6.419550e-01  -1.578686e-02  1.836669e-02  -1.578529e-02  1.836487e-02  7.303062e-01  6.625058e-01
2.071000e+00  7.495510e-01  6.401455e-01  -1.581741e-02  1.849166e-02  -1.581584e-02  1.848983e-02  7.318237e-01  6.608277e-01
2.071500e+00  7.510941e-01  6.383299e-01  -1.584782e-02  1.861743e-02  -1.584624e-02  1.861559e-02  7.333391e-01  6.591440e-01
2.072000e+00  7.526347e-01  6.365082e-01  -1.587807e-02  1.874401e-02  -1.587649e-02  1.874215e-02  7.348523e-01  6.574547e-01
2.072500e+00  7.541728e-01  6.346803e-01  -1.590818e-02  1.887139e-02  -1.590660e-02  1.886952e-02  7.363634e-01  6.557599e-01
2.073000e+00  7.557084e-01  6.328462e-01  -1.593813e-02  1.899959e-02  -1.593655e-02  1.899770e-02  7.378723e-01  6.540594e-01
2.073500e+00  7.572414e-01  6.310059e-01  -1.596793e-02  1.912860e-02  -1.596634e-02  1.912670e-02  7.393790e-01  6.523534e-01
2.074000e+00  7.587718e-01  6.291594e-01  -1.599756e-02  1.925844e-02  -1.599597e-02  1.925653e-02  7.408835e-01  6.506418e-01
2.074500e+00  7.602997e-01  6.273067e-01  -1.602703e-02  1.938910e-02  -1.602543e-02  1.938718e-02  7.423858e-01  6.489245e-01
2.075000e+00  7.618250e-01  6.254478e-01  -1.605633e-02  1.952061e-02  -1.605473e-02  1.951867e-02  7.438858e-01  6.472016e-01
2.075500e+00  7.633476e-01  6.235826e-01  -1.608546e-02  1.965295e-02  -1.608386e-02  1.965100e-02  7.453836e-01  6.454731e-01
2.076000e+00  7.648676e-01  6.217112e-01  -1.611441e-02  1.978613e-02  -1.611281e-02  1.978417e-02  7.468791e-01  6.437389e-01
2.076500e+00  7.663848e-01  6.198335e-01  -1.614319e-02  1.992017e-02  -1.614158e-02  1.991819e-02  7.483723e-01  6.419990e-01
2.077000e+00  7.678994e-01  6.179496e-01  -1.617178e-02  2.005506e-02  -1.617017e-02  2.005307e-02  7.498632e-01  6.402535e-01
2.077500e+00  7.694113e-01  6.160593e-01  -1.620019e-02  2.019081e-02  -1.619858e-02  2.018881e-02  7.513518e-01  6.385022e-01
2.078000e+00  7.709205e-01  6.141628e-01  -1.622841e-02  2.032743e-02  -1.622679e-02  2.032541e-02  7.528380e-01  6.367453e-01
2.078500e+00  7.724269e-01  6.122599e-01  -1.625643e-02  2.046492e-02  -1.625481e-02  2.046289e-02  7.543218e-01  6.349827e-01
2.079000e+00  7.739304e-01  6.103508e-01  -1.628426e-02  2.060328e-02  -1.628264e-02  2.060124e-02  7.558033e-01  6.332144e-01
2.079500e+00  7.754312e-01  6.084353e-01  -1.631189e-02  2.074254e-02  -1.631027e-02  2.074048e-02  7.572824e-01  6.314403e-01
2.080000e+00  7.769292e-01  6.065134e-01  -1.633931e-02  2.088267e-02  -1.633769e-02  2.088060e-02  7.587590e-01  6.296605e-01
2.080500e+00  7.784243e-01  6.045852e-01  -1.636653e-02  2.102371e-02  -1.636490e-02  2.102162e-02  7.602333e-01  6.278749e-01
2.081000e+00  7.799165e-01  6.026506e-01  -1.639353e-02  2.116564e-02  -1.639190e-02  2.116354e-02  7.617050e-01  6.260836e-01
2.081500e+00  7.814059e-01  6.007097e-01  -1.642031e-02  2.130848e-02  -1.641868e-02  2.130637e-02  7.631743e-01  6.242864e-01
2.082000e+00  7.828923e-01  5.987623e-01  -1.644688e-02  2.145223e-02  -1.644524e-02  2.145010e-02  7.646411e-01  6.224835e-01
2.082500e+00  7.843758e-01  5.968085e-01  -1.647322e-02  2.159690e-02  -1.647158e-02  2.159475e-02  7.661054e-01  6.206748e-01
2.083000e+00  7.858563e-01  5.948483e-01  -1.649933e-02  2.174249e-02  -1.649768e-02  2.174033e-02  7.675671e-01  6.188603e-01
2.083500e+00  7.873338e-01  5.928817e-01  -1.652520e-02  2.188900e-02  -1.652356e-02  2.188683e-02  7.690264e-01  6.170400e-01
2.084000e+00  7.888083e-01  5.909087e-01  -1.655084e-02  2.203646e-02  -1.654919e-02  2.203427e-02  7.704830e-01  6.152139e-01
2.084500e+00  7.902798e-01  5.889291e-01  -1.657624e-02  2.218485e-02  -1.657459e-02  2.218265e-02  7.719370e-01  6.133819e-01
2.085000e+00  7.917482e-01  5.869431e-01  -1.660139e-02  2.233419e-02  -1.659974e-02  2.233198e-02  7.733885e-01  6.115440e-01
2.085500e+00  7.932135e-01  5.849507e-01  -1.662629e-02  2.248448e-02  -1.662463e-02  2.248225e-02  7.748373e-01  6.097003e-01
2.086000e+00  7.946758e-01  5.829517e-01  -1.665093e-02  2.263573e-02  -1.664928e-02  2.263349e-02  7.762835e-01  6.078507e-01
2.086500e+00  7.961349e-01  5.809462e-01  -1.667532e-02  2.278795e-02  -1.667366e-02  2.278569e-02  7.777270e-01  6.059952e-01
2.087000e+00  7.975908e-01  5.789343e-01  -1.669944e-02  2.294113e-02  -1.669778e-02  2.293886e-02  7.791678e-01  6.041338e-01
2.087500e+00  7.990435e-01  5.769157e-01  -1.672329e-02  2.309530e-02  -1.672162e-02  2.309301e-02  7.806059e-01  6.022666e-01
2.088000e+00  8.004931e-01  5.748907e-01  -1.674687e-02  2.325044e-02  -1.674520e-02  2.324814e-02  7.820413e-01  6.003933e-01
2.088500e+00  8.019394e-01  5.728591e-01  -1.677016e-02  2.340658e-02  -1.676849e-02  2.340426e-02  7.834740e-01  5.985142e-01
2.089000e+00  8.033825e-01  5.708209e-01  -1.679318e-02  2.356371e-02  -1.679151e-02  2.356137e-02  7.849039e-01  5.966291e-01
2.089500e+00  8.048222e-01  5.687761e-01  -1.681590e-02  2.372184e-02  -1.681423e-02  2.371948e-02  7.863310e-01  5.947380e-01
2.090000e+00  8.062587e-01  5.667248e-01  -1.683834e-02  2.388098e-02  -1.683666e-02  2.387861e-02  7.877553e-01  5.928410e-01
2.090500e+00  8.076919e-01  5.646668e-01  -1.686047e-02  2.404113e-02  -1.685879e-02  2.403875e-02  7.891767e-01  5.909380e-01
2.091000e+00  8.091217e-01  5.626022e-01  -1.688230e-02  2.420230e-02  -1.688062e-02  2.419990e-02  7.905954e-01  5.890290e-01
2.091500e+00  8.105481e-01  5.605310e-01  -1.690382e-02  2.436451e-02  -1.690214e-02  2.436209e-02  7.920111e-01  5.871140e-01
2.092000e+00  8.119711e-01  5.584532e-01  -1.692503e-02  2.452774e-02  -1.692334e-02  2.452531e-02  7.934240e-01  5.851930e-01
2.092500e+00  8.133906e-01  5.563687e-01  -1.694592e-02  2.469202e-02  -1.694423e-02  2.468957e-02  7.948339e-01  5.832660e-01
2.093000e+00  8.148067e-01  5.542775e-01  -1.696648e-02  2.485734e-02  -1.696479e-02  2.485487e-02  7.962410e-01  5.813329e-01
2.093500e+00  8.162193e-01  5.521797e-01  -1.698671e-02  2.502371e-02  -1.698502e-02  2.502123e-02  7.976450e-01  5.793938e-01
2.094000e+00  8.176284e-01  5.500752e-01  -1.700661e-02  2.519115e-02  -1.700492e-02  2.518865e-02  7.990462e-01  5.774486e-01
2.094500e+00  8.190340e-01  5.479639e-01  -1.702617e-02  2.535965e-02  -1.702447e-02  2.535713e-02  8.004443e-01  5.754973e-01
2.095000e+00  8.204360e-01  5.458460e-01  -1.704538e-02  2.552922e-02  -1.704368e-02  2.552669e-02  8.018394e-01  5.735400e-01
2.095500e+00  8.218344e-01  5.437213e-01  -1.706423e-02  2.569988e-02  -1.706254e-02  2.569733e-02  8.032314e-01  5.715765e-01
2.096000e+00  8.232292e-01  5.415899e-01  -1.708273e-02  2.587162e-02  -1.708103e-02  2.586905e-02  8.046204e-01  5.696070e-01
2.096500e+00  8.246203e-01  5.394517e-01  -1.710087e-02  2.604445e-02  -1.709916e-02  2.604187e-02  8.060063e-01  5.676313e-01
2.097000e+00  8.260078e-01  5.373067e-01  -1.711863e-02  2.621839e-02  -1.711693e-02  2.621579e-02  8.073891e-01  5.656495e-01
2.097500e+00  8.273915e-01  5.351550e-01  -1.713602e-02  2.639343e-02  -1.713431e-02  2.639082e-02  8.087688e-01  5.636615e-01
2.098000e+00  8.287716e-01  5.329965e-01  -1.715303e-02  2.656959e-02  -1.715132e-02  2.656696e-02  8.101453e-01  5.616674e-01
2.098500e+00  8.301478e-01  5.308312e-01  -1.716964e-02  2.674687e-02  -1.716793e-02  2.674422e-02  8.115187e-01  5.596671e-01
2.099000e+00  8.315203e-01  5.286591e-01  -1.718587e-02  2.692528e-02  -1.718416e-02  2.692261e-02  8.128889e-01  5.576607e-01
2.099500e+00  8.328890e-01  5.264801e-01  -1.720169e-02  2.710482e-02  -1.719998e-02  2.710213e-02  8.142558e-01  5.556480e-01
2.100000e+00  8.342538e-01  5.242943e-01  -1.721711e-02  2.728550e-02  -1.721539e-02  2.728280e-02  8.156195e-01  5.536291e-01
2.100500e+00  8.356147e-01  5.221016e-01  -1.723211e-02  2.746734e-02  -1.723039e-02  2.746462e-02  8.169800e-01  5.516040e-01
2.101000e+00  8.369718e-01  5.199021e-01  -1.724669e-02  2.765033e-02  -1.724497e-02  2.764759e-02  8.183371e-01  5.495727e-01
2.101500e+00  8.383249e-01  5.176957e-01  -1.726085e-02  2.783449e-02  -1.725913e-02  2.783173e-02  8.196910e-01  5.475352e-01
2.102000e+00  8.396740e-01  5.154824e-01  -1.727457e-02  2.801981e-02  -1.727285e-02  2.801704e-02  8.210415e-01  5.454913e-01
2.102500e+00  8.410192e-01  5.132622e-01  -1.728785e-02  2.820632e-02  -1.728613e-02  2.820352e-02  8.223886e-01  5.434413e-01
2.103000e+00  8.423604e-01  5.110351e-01  -1.730069e-02  2.839401e-02  -1.729896e-02  2.839120e-02  8.237324e-01  5.413849e-01
2.103500e+00  8.436975e-01  5.088011e-01  -1.731307e-02  2.858290e-02  -1.731134e-02  2.858007e-02  8.250727e-01  5.393222e-01
2.104000e+00  8.450305e-01  5.065601e-01  -1.732499e-02  2.877299e-02  -1.732326e-02  2.877013e-02  8.264097e-01  5.372533e-01
2.104500e+00  8.463594e-01  5.043121e-01  -1.733644e-02  2.896428e-02  -1.733472e-02  2.896141e-02  8.277431e-01  5.351780e-01
2.105000e+00  8.476841e-01  5.020572e-01  -1.734742e-02  2.915679e-02  -1.734569e-02  2.915390e-02  8.290731e-01  5.330964e-01
2.105500e+00  8.490047e-01  4.997953e-01  -1.735791e-02  2.935053e-02  -1.735619e-02  2.934762e-02  8.303996e-01  5.310085e-01
2.106000e+00  8.503211e-01  4.975264e-01  -1.736792e-02  2.954550e-02  -1.736619e-02  2.954257e-02  8.317226e-01  5.289142e-01
2.106500e+00  8.516333e-01  4.952506e-01  -1.737743e-02  2.974170e-02  -1.737570e-02  2.973875e-02  8.330420e-01  5.268135e-01
2.107000e+00  8.529412e-01  4.929677e-01  -1.738643e-02  2.993915e-02  -1.738470e-02  2.993618e-02  8.343578e-01  5.247064e-01
2.107500e+00  8.542448e-01  4.906777e-01  -1.739492e-02  3.013786e-02  -1.739319e-02  3.013487e-02  8.356700e-01  5.225930e-01
2.108000e+00  8.555441e-01  4.883807e-01  -1.740289e-02  3.033783e-02  -1.740116e-02  3.033482e-02  8.369786e-01  5.204732e-01
2.108500e+00  8.568390e-01  4.860767e-01  -1.741034e-02  3.053907e-02  -1.740860e-02  3.053604e-02  8.382836e-01  5.183469e-01
2.109000e+00  8.581295e-01  4.837656e-01  -1.741724e-02  3.074158e-02  -1.741551e-02  3.073854e-02  8.395848e-01  5.162142e-01
2.109500e+00  8.594156e-01  4.814474e-01  -1.742361e-02  3.094539e-02  -1.742187e-02  3.094232e-02  8.408824e-01  5.140751e-01
2.110000e+00  8.606973e-01  4.791222e-01  -1.742942e-02  3.115048e-02  -1.742768e-02  3.114739e-02  8.421762e-01  5.119295e-01
2.110500e+00  8.619745e-01  4.767898e-01  -1.743467e-02  3.135688e-02  -1.743293e-02  3.135377e-02  8.434662e-01  5.097775e-01
2.111000e+00  8.632471e-01  4.744503e-01  -1.743935e-02  3.156459e-02  -1.743761e-02  3.156146e-02  8.447525e-01  5.076189e-01
2.111500e+00  8.645152e-01  4.721037e-01  -1.744345e-02  3.177362e-02  -1.744172e-02  3.177046e-02  8.460349e-01  5.054539e-01
2.112000e+00  8.657787e-01  4.697499e-01  -1.744697e-02  3.198397e-02  -1.744523e-02  3.198080e-02  8.473135e-01  5.032824e-01
2.112500e+00  8.670376e-01  4.673889e-01  -1.744990e-02  3.219565e-02  -1.744816e-02  3.219246e-02  8.485882e-01  5.011043e-01
2.113000e+00  8.682919e-01  4.650209e-01  -1.745222e-02  3.240868e-02  -1.745048e-02  3.240547e-02  8.498591e-01  4.989198e-01
2.113500e+00  8.695414e-01  4.626456e-01  -1.745393e-02  3.262306e-02  -1.745219e-02  3.261983e-02  8.511260e-01  4.967286e-01
2.114000e+00  8.707862e-01  4.602631e-01  -1.745502e-02  3.283880e-02  -1.745328e-02  3.283555e-02  8.523890e-01  4.945310e-01
2.114500e+00  8.720263e-01  4.578734e-01  -1.745548e-02  3.305591e-02  -1.745374e-02  3.305263e-02  8.536480e-01  4.923267e-01
2.115000e+00  8.732616e-01  4.554765e-01  -1.745530e-02  3.327439e-02  -1.745356e-02  3.327109e-02  8.549029e-01  4.901159e-01
2.115500e+00  8.744921e-01  4.530724e-01  -1.745448e-02  3.349426e-02  -1.745274e-02  3.349094e-02  8.561539e-01  4.878985e-01
2.116000e+00  8.757177e-01  4.506610e-01  -1.745299e-02  3.371552e-02  -1.745125e-02  3.371218e-02  8.574008e-01  4.856744e-01
2.116500e+00  8.769384e-01  4.482424e-01  -1.745084e-02  3.393818e-02  -1.744910e-02  3.393482e-02  8.586436e-01  4.834438e-01
2.117000e+00  8.781541e-01  4.458165e-01  -1.744801e-02  3.416226e-02  -1.744627e-02  3.415887e-02  8.598822e-01  4.812065e-01
2.117500e+00  8.793649e-01  4.433833e-01  -1.744450e-02  3.438775e-02  -1.744276e-02  3.438434e-02  8.611168e-01  4.789626e-01
2.118000e+00  8.805707e-01  4.409428e-01  -1.744029e-02  3.461467e-02  -1.743855e-02  3.461123e-02  8.623471e-01  4.767120e-01
2.118500e+00  8.817715e-01  4.384950e-01  -1.743537e-02  3.484302e-02  -1.743363e-02  3.483957e-02  8.635732e-01  4.744547e-01
2.119000e+00  8.829672e-01  4.360399e-01  -1.742973e-02  3.507282e-02  -1.742800e-02  3.506934e-02  8.647951e-01  4.721907e-01
2.119500e+00  8.841578e-01  4.335775e-01  -1.742337e-02  3.530408e-02  -1.742164e-02  3.530057e-02  8.660128e-01  4.699201e-01
2.120000e+00  8.853432e-01  4.311077e-01  -1.741628e-02  3.553679e-02  -1.741454e-02  3.553327e-02  8.672261e-01  4.676427e-01
2.120500e+00  8.865235e-01  4.286306e-01  -1.740843e-02  3.577098e-02  -1.740670e-02  3.576743e-02  8.684351e-01  4.653586e-01
2.121000e+00  8.876985e-01  4.261461e-01  -1.739983e-02  3.600665e-02  -1.739809e-02  3.600308e-02  8.696398e-01  4.630678e-01
2.121500e+00  8.888682e-01  4.236542e-01  -1.739046e-02  3.624381e-02  -1.738872e-02  3.624021e-02  8.708400e-01  4.607702e-01
2.122000e+00  8.900327e-01  4.211549e-01  -1.738031e-02  3.648247e-02  -1.737857e-02  3.647885e-02  8.720359e-01  4.584659e-01
2.122500e+00  8.911918e-01  4.186482e-01  -1.736936e-02  3.672263e-02  -1.736763e-02  3.671899e-02  8.732273e-01  4.561547e-01
2.123000e+00  8.923456e-01  4.161341e-01  -1.735762e-02  3.696432e-02  -1.735589e-02  3.696065e-02  8.744142e-01  4.538368e-01
2.123500e+00  8.934939e-01  4.136126e-01  -1.734506e-02  3.720752e-02  -1.734333e-02  3.720383e-02  8.755966e-01  4.515121e-01
2.124000e+00  8.946368e-01  4.110836e-01  -1.733168e-02  3.745227e-02  -1.732995e-02  3.744855e-02  8.767744e-01  4.491805e-01
2.124500e+00  8.957742e-01  4.085472e-01  -1.731747e-02  3.769856e-02  -1.731574e-02  3.769482e-02  8.779477e-01  4.468422e-01
2.125000e+00  8.969060e-01  4.060033e-01  -1.730240e-02  3.794640e-02  -1.730067e-02  3.794264e-02  8.791164e-01  4.444969e-01
2.125500e+00  8.980323e-01  4.034519e-01  -1.728648e-02  3.819581e-02  -1.728475e-02  3.819202e-02  8.802804e-01  4.421449e-01
2.126000e+00  8.991530e-01  4.008930e-01  -1.726968e-02  3.844678e-02  -1.726796e-02  3.844297e-02  8.814398e-01  4.397859e-01
2.126500e+00  9.002680e-01  3.983266e-01  -1.725200e-02  3.869935e-02  -1.725028e-02  3.869551e-02  8.825944e-01  4.374201e-01
2.127000e+00  9.013774e-01  3.957527e-01  -1.723342e-02  3.895350e-02  -1.723170e-02  3.894964e-02  8.837444e-01  4.350473e-01
2.127500e+00  9.024810e-01  3.931713e-01  -1.721394e-02  3.920925e-02  -1.721222e-02  3.920536e-02  8.848895e-01  4.326677e-01
2.128000e+00  9.035788e-01  3.905823e-01  -1.719353e-02  3.946662e-02  -1.719182e-02  3.946271e-02  8.860298e-01  4.302811e-01
2.128500e+00  9.046708e-01  3.879858e-01  -1.717219e-02  3.972561e-02  -1.717048e-02  3.972167e-02  8.871653e-01  4.278876e-01
2.129000e+00  9.057570e-01  3.853817e-01  -1.714991e-02  3.998622e-02  -1.714820e-02  3.998226e-02  8.882960e-01  4.254871e-01
2.129500e+00  9.068372e-01  3.827700e-01  -1.712666e-02  4.024848e-02  -1.712495e-02  4.024449e-02  8.894217e-01  4.230797e-01
2.130000e+00  9.079115e-01  3.801508e-01  -1.710244e-02  4.051239e-02  -1.710074e-02  4.050837e-02  8.905425e-01  4.206653e-01
2.130500e+00  9.089799e-01  3.775239e-01  -1.707724e-02  4.077795e-02  -1.707554e-02  4.077391e-02  8.916583e-01  4.182439e-01
2.131000e+00  9.100422e-01  3.748894e-01  -1.705104e-02  4.104519e-02  -1.704933e-02  4.104112e-02  8.927691e-01  4.158155e-01
2.131500e+00  9.110984e-01  3.722473e-01  -1.702382e-02  4.131411e-02  -1.702212e-02  4.131001e-02  8.938748e-01  4.133801e-01
2.132000e+00  9.121485e-01  3.695976e-01  -1.699557e-02  4.158471e-02  -1.699388e-02  4.158059e-02  8.949755e-01  4.109376e-01
2.132500e+00  9.131925e-01  3.669402e-01  -1.696629e-02  4.185702e-02  -1.696459e-02  4.185286e-02  8.960710e-01  4.084881e-01
2.133000e+00  9.142303e-01  3.642752e-01  -1.693595e-02  4.213103e-02  -1.693426e-02  4.212685e-02  8.971614e-01  4.060315e-01
2.133500e+00  9.152618e-01  3.616025e-01  -1.690453e-02  4.240676e-02  -1.690285e-02  4.240256e-02  8.982467e-01  4.035679e-01
2.134000e+00  9.162870e-01  3.589220e-01  -1.687204e-02  4.268423e-02  -1.687035e-02  4.267999e-02  8.993266e-01  4.010971e-01
2.134500e+00  9.173059e-01  3.562339e-01  -1.683844e-02  4.296343e-02  -1.683676e-02  4.295917e-02  9.004014e-01  3.986193e-01
2.135000e+00  9.183184e-01  3.535381e-01  -1.680373e-02  4.324438e-02  -1.680206e-02  4.324009e-02  9.014708e-01  3.961343e-01
2.135500e+00  9.193245e-01  3.508346e-01  -1.676789e-02  4.352710e-02  -1.676622e-02  4.352278e-02  9.025349e-01  3.936423e-01
2.136000e+00  9.203241e-01  3.481233e-01  -1.673091e-02  4.381158e-02  -1.672924e-02  4.380724e-02  9.035936e-01  3.911430e-01
2.136500e+00  9.213172e-01  3.454043e-01  -1.669277e-02  4.409785e-02  -1.669110e-02  4.409348e-02  9.046469e-01  3.886366e-01
2.137000e+00  9.223037e-01  3.426776e-01  -1.665345e-02  4.438591e-02  -1.665179e-02  4.438150e-02  9.056947e-01  3.861231e-01
2.137500e+00  9.232836e-01  3.399430e-01  -1.661294e-02  4.467577e-02  -1.661128e-02  4.467134e-02  9.067371e-01  3.836024e-01
2.138000e+00  9.242569e-01  3.372007e-01  -1.657122e-02  4.496744e-02  -1.656957e-02  4.496298e-02  9.077739e-01  3.810744e-01
2.138500e+00  9.252235e-01  3.344506e-01  -1.652828e-02  4.526094e-02  -1.652663e-02  4.525645e-02  9.088052e-01  3.785393e-01
2.139000e+00  9.261833e-01  3.316927e-01  -1.648410e-02  4.555626e-02  -1.648245e-02  4.555174e-02  9.098308e-01  3.759969e-01
2.139500e+00  9.271362e-01  3.289270e-01  -1.643866e-02  4.585344e-02  -1.643702e-02  4.584889e-02  9.108509e-01  3.734473e-01
2.140000e+00  9.280824e-01  3.261535e-01  -1.639194e-02  4.615246e-02  -1.639031e-02  4.614789e-02  9.118652e-01  3.708904e-01
2.140500e+00  9.290216e-01  3.233721e-01  -1.634394e-02  4.645336e-02  -1.634231e-02  4.644875e-02  9.128738e-01  3.683263e-01
2.141000e+00  9.299539e-01  3.205829e-01  -1.629463e-02  4.675613e-02  -1.629300e-02  4.675149e-02  9.138767e-01  3.657549e-01
2.141500e+00  9.308792e-01  3.177859e-01  -1.624399e-02  4.706078e-02  -1.624237e-02  4.705611e-02  9.148737e-01  3.631762e-01
2.142000e+00  9.317975e-01  3.149809e-01  -1.619201e-02  4.736734e-02  -1.619040e-02  4.736264e-02  9.158649e-01  3.605902e-01
2.142500e+00  9.327086e-01  3.121681e-01  -1.613867e-02  4.767580e-02  -1.613706e-02  4.767107e-02  9.168502e-01  3.579968e-01
2.143000e+00  9.336126e-01  3.093474e-01  -1.608395e-02  4.798618e-02  -1.608234e-02  4.798142e-02  9.178296e-01  3.553962e-01
2.143500e+00  9.345094e-01  3.065188e-01  -1.602783e-02  4.829849e-02  -1.602623e-02  4.829370e-02  9.188030e-01  3.527882e-01
2.144000e+00  9.353990e-01  3.036823e-01  -1.597030e-02  4.861274e-02  -1.596870e-02  4.860792e-02  9.197704e-01  3.501728e-01
2.144500e+00  9.362812e-01  3.008379e-01  -1.591133e-02  4.892895e-02  -1.590974e-02  4.892409e-02  9.207317e-01  3.475500e-01
2.145000e+00  9.371561e-01  2.979855e-01  -1.585090e-02  4.924712e-02  -1.584932e-02  4.924223e-02  9.216870e-01  3.449199e-01
2.145500e+00  9.380236e-01  2.951252e-01  -1.578901e-02  4.956726e-02  -1.578743e-02  4.956234e-02  9.226361e-01  3.422823e-01
2.146000e+00  9.388836e-01  2.922570e-01  -1.572562e-02  4.988939e-02  -1.572404e-02  4.988444e-02  9.235790e-01  3.396374e-01
2.146500e+00  9.397361e-01  2.893807e-01  -1.566071e-02  5.021351e-02  -1.565915e-02  5.020853e-02  9.245157e-01  3.369850e-01
2.147000e+00  9.405810e-01  2.864965e-01  -1.559428e-02  5.053964e-02  -1.559272e-02  5.053463e-02  9.254461e-01  3.343251e-01
2.147500e+00  9.414183e-01  2.836044e-01  -1.552629e-02  5.086780e-02  -1.552474e-02  5.086275e-02  9.263702e-01  3.316578e-01
2.148000e+00  9.422479e-01  2.807042e-01  -1.545673e-02  5.119798e-02  -1.545518e-02  5.119290e-02  9.272879e-01  3.289830e-01
2.148500e+00  9.430698e-01  2.777960e-01  -1.538557e-02  5.153020e-02  -1.538403e-02  5.152509e-02  9.281992e-01  3.263008e-01
2.149000e+00  9.438839e-01  2.748798e-01  -1.531280e-02  5.186447e-02  -1.531127e-02  5.185933e-02  9.291041e-01  3.236110e-01
2.149500e+00  9.446902e-01  2.719556e-01  -1.523839e-02  5.220081e-02  -1.523687e-02  5.219563e-02  9.300024e-01  3.209137e-01
2.150000e+00  9.454885e-01  2.690233e-01  -1.516233e-02  5.253922e-02  -1.516081e-02  5.253401e-02  9.308942e-01  3.182089e-01
2.150500e+00  9.462789e-01  2.660830e-01  -1.508458e-02  5.287972e-02  -1.508308e-02  5.287448e-02  9.317795e-01  3.154966e-01
2.151000e+00  9.470613e-01  2.631347e-01  -1.500514e-02  5.322232e-02  -1.500364e-02  5.321704e-02  9.326580e-01  3.127767e-01
2.151500e+00  9.478356e-01  2.601783e-01  -1.492397e-02  5.356703e-02  -1.492247e-02  5.356171e-02  9.335299e-01  3.100492e-01
2.152000e+00  9.486018e-01  2.572138e-01  -1.484105e-02  5.391385e-02  -1.483956e-02  5.390850e-02  9.343951e-01  3.073142e-01
2.152500e+00  9.493598e-01  2.542412e-01  -1.475636e-02  5.426281e-02  -1.475489e-02  5.425743e-02  9.352535e-01  3.045715e-01
2.153000e+00  9.501096e-01  2.512606e-01  -1.466988e-02  5.461392e-02  -1.466842e-02  5.460850e-02  9.361050e-01  3.018213e-01
2.153500e+00  9.508510e-01  2.482718e-01  -1.458159e-02  5.496717e-02  -1.458013e-02  5.496172e-02  9.369497e-01  2.990634e-01
2.154000e+00  9.515841e-01  2.452750e-01  -1.449145e-02  5.532260e-02  -1.449000e-02  5.531711e-02  9.377874e-01  2.962979e-01
2.154500e+00  9.523088e-01  2.422700e-01  -1.439945e-02  5.568020e-02  -1.439801e-02  5.567467e-02  9.386182e-01  2.935247e-01
2.155000e+00  9.530249e-01  2.392569e-01  -1.430556e-02  5.603999e-02  -1.430413e-02  5.603443e-02  9.394419e-01  2.907439e-01
2.155500e+00  9.537326e-01  2.362356e-01  -1.420976e-02  5.640198e-02  -1.420834e-02  5.639639e-02  9.402585e-01  2.879554e-01
2.156000e+00  9.544316e-01  2.332063e-01  -1.411202e-02  5.676619e-02  -1.411061e-02  5.676056e-02  9.410680e-01  2.851592e-01
2.156500e+00  9.551219e-01  2.301687e-01  -1.401232e-02  5.713262e-02  -1.401092e-02  5.712695e-02  9.418704e-01  2.823553e-01
2.157000e+00  9.558035e-01  2.271230e-01  -1.391063e-02  5.750129e-02  -1.390924e-02  5.749558e-02  9.426654e-01  2.795437e-01
2.157500e+00  9.564764e-01  2.240692e-01  -1.380693e-02  5.787220e-02  -1.380554e-02  5.786646e-02  9.434532e-01  2.767244e-01
2.158000e+00  9.571403e-01  2.210071e-01  -1.370118e-02  5.824537e-02  -1.369981e-02  5.823959e-02  9.442337e-01  2.738973e-01
2.158500e+00  9.577954e-01  2.179369e-01  -1.359337e-02  5.862081e-02  -1.359201e-02  5.861500e-02  9.450068e-01  2.710625e-01
2.159000e+00  9.584414e-01  2.148585e-01  -1.348346e-02  5.899854e-02  -1.348211e-02  5.899269e-02  9.457724e-01  2.682198e-01
2.159500e+00  9.590784e-01  2.117719e-01  -1.337143e-02  5.937856e-02  -1.337009e-02  5.937267e-02  9.465305e-01  2.653695e-01
2.160000e+00  9.597063e-01  2.086770e-01  -1.325726e-02  5.976089e-02  -1.325593e-02  5.975495e-02  9.472811e-01  2.625113e-01
2.160500e+00  9.603250e-01  2.055740e-01  -1.314090e-02  6.014553e-02  -1.313959e-02  6.013956e-02  9.480240e-01  2.596453e-01
2.161000e+00  9.609344e-01  2.024627e-01  -1.302235e-02  6.053250e-02  -1.302104e-02  6.052649e-02  9.487593e-01  2.567714e-01
2.161500e+00  9.615346e-01  1.993432e-01  -1.290155e-02  6.092181e-02  -1.290026e-02  6.091577e-02  9.494869e-01  2.538898e-01
2.162000e+00  9.621253e-01  1.962155e-01  -1.277850e-02  6.131348e-02  -1.277722e-02  6.130739e-02  9.502067e-01  2.510003e-01
2.162500e+00  9.627066e-01  1.930795e-01  -1.265315e-02  6.170751e-02  -1.265189e-02  6.170138e-02  9.509186e-01  2.481029e-01
2.163000e+00  9.632784e-01  1.899353e-01  -1.252549e-02  6.210391e-02  -1.252423e-02  6.209775e-02  9.516227e-01  2.451977e-01
2.163500e+00  9.638406e-01  1.867828e-01  -1.239547e-02  6.250270e-02  -1.239423e-02  6.249650e-02  9.523188e-01  2.422846e-01
2.164000e+00  9.643932e-01  1.836221e-01  -1.226307e-02  6.290389e-02  -1.226184e-02  6.289765e-02  9.530070e-01  2.393635e-01
2.164500e+00  9.649360e-01  1.804531e-01  -1.212826e-02  6.330749e-02  -1.212704e-02  6.330121e-02  9.536870e-01  2.364346e-01
2.165000e+00  9.654690e-01  1.772758e-01  -1.199101e-02  6.371352e-02  -1.198980e-02  6.370719e-02  9.543589e-01  2.334978e-01
2.165500e+00  9.659921e-01  1.740903e-01  -1.185128e-02  6.412197e-02  -1.185009e-02  6.411561e-02  9.550227e-01  2.305530e-01
2.166000e+00  9.665053e-01  1.708964e-01  -1.170904e-02  6.453287e-02  -1.170786e-02  6.452647e-02  9.556782e-01  2.276002e-01
2.166500e+00  9.670085e-01  1.676943e-01  -1.156426e-02  6.494623e-02  -1.156310e-02  6.493979e-02  9.563254e-01  2.246395e-01
2.167000e+00  9.675016e-01  1.644839e-01  -1.141692e-02  6.536206e-02  -1.141577e-02  6.535557e-02  9.569642e-01  2.216708e-01
2.167500e+00  9.679846e-01  1.612651e-01  -1.126697e-02  6.578037e-02  -1.126583e-02  6.577384e-02  9.575946e-01  2.186942e-01
2.168000e+00  9.684573e-01  1.580381e-01  -1.111438e-02  6.620116e-02  -1.111326e-02  6.619459e-02  9.582165e-01  2.157095e-01
2.168500e+00  9.689197e-01  1.548028e-01  -1.095911e-02  6.662447e-02  -1.095801e-02  6.661785e-02  9.588299e-01  2.127168e-01
2.169000e+00  9.693717e-01  1.515591e-01  -1.080115e-02  6.705028e-02  -1.080006e-02  6.704363e-02  9.594346e-01  2.097161e-01
2.169500e+00  9.698133e-01  1.483071e-01  -1.064044e-02  6.747862e-02  -1.063937e-02  6.747192e-02  9.600307e-01  2.067074e-01
2.170000e+00  9.702443e-01  1.450468e-01  -1.047695e-02  6.790950e-02  -1.047589e-02  6.790276e-02  9.606180e-01  2.036906e-01
2.170500e+00  9.706647e-01  1.417782e-01  -1.031065e-02  6.834292e-02  -1.030961e-02  6.833614e-02  9.611965e-01  2.006658e-01
2.171000e+00  9.710745e-01  1.385013e-01  -1.014150e-02  6.877891e-02  -1.014048e-02  6.877208e-02  9.617662e-01  1.976329e-01
2.171500e+00  9.714734e-01  1.352160e-01  -9.969471e-03  6.921746e-02  -9.968467e-03  6.921059e-02  9.623269e-01  1.945919e-01
2.172000e+00  9.718616e-01  1.319224e-01  -9.794518e-03  6.965860e-02  -9.793531e-03  6.965168e-02  9.628786e-01  1.915428e-01
2.172500e+00  9.722388e-01  1.286204e-01  -9.616605e-03  7.010233e-02  -9.615636e-03  7.009537e-02  9.634212e-01  1.884857e-01
2.173000e+00  9.726050e-01  1.253101e-01  -9.435695e-03  7.054866e-02  -9.434744e-03  7.054166e-02  9.639547e-01  1.854204e-01
2.173500e+00  9.729601e-01  1.219915e-01  -9.251750e-03  7.099761e-02  -9.250817e-03  7.099056e-02  9.644790e-01  1.823470e-01
2.174000e+00  9.733040e-01  1.186645e-01  -9.064730e-03  7.144918e-02  -9.063815e-03  7.144209e-02  9.649940e-01  1.792654e-01
2.174500e+00  9.736367e-01  1.153291e-01  -8.874596e-03  7.190340e-02  -8.873701e-03  7.189626e-02  9.654996e-01  1.761757e-01
2.175000e+00  9.739581e-01  1.119855e-01  -8.681310e-03  7.236025e-02  -8.680433e-03  7.235307e-02  9.659959e-01  1.730778e-01
2.175500e+00  9.742680e-01  1.086334e-01  -8.484829e-03  7.281977e-02  -8.483971e-03  7.281254e-02  9.664826e-01  1.699718e-01
2.176000e+00  9.745664e-01  1.052730e-01  -8.285113e-03  7.328196e-02  -8.284276e-03  7.327468e-02  9.669598e-01  1.668576e-01
2.176500e+00  9.748533e-01  1.019043e-01  -8.082122e-03  7.374682e-02  -8.081304e-03  7.373950e-02  9.674274e-01  1.637352e-01
2.177000e+00  9.751285e-01  9.852724e-02  -7.875813e-03  7.421437e-02  -7.875016e-03  7.420701e-02  9.678852e-01  1.606046e-01
2.177500e+00  9.753919e-01  9.514181e-02  -7.666143e-03  7.468463e-02  -7.665367e-03  7.467722e-02  9.683333e-01  1.574658e-01
2.178000e+00  9.756435e-01  9.174803e-02  -7.453071e-03  7.515759e-02  -7.452315e-03  7.515013e-02  9.687715e-01  1.543188e-01
2.178500e+00  9.758832e-01  8.834589e-02  -7.236552e-03  7.563328e-02  -7.235818e-03  7.562577e-02  9.691999e-01  1.511635e-01
2.179000e+00  9.761109e-01  8.493541e-02  -7.016542e-03  7.611170e-02  -7.015830e-03  7.610414e-02  9.696182e-01  1.480001e-01
2.179500e+00  9.763264e-01  8.151659e-02  -6.792998e-03  7.659286e-02  -6.792308e-03  7.658525e-02  9.700264e-01  1.448283e-01
2.180000e+00  9.765298e-01  7.808941e-02  -6.565873e-03  7.707677e-02  -6.565206e-03  7.706911e-02  9.704245e-01  1.416483e-01
2.180500e+00  9.767208e-01  7.465390e-02  -6.335123e-03  7.756344e-02  -6.334478e-03  7.755574e-02  9.708123e-01  1.384601e-01
2.181000e+00  9.768995e-01  7.121004e-02  -6.100701e-03  7.805288e-02  -6.100079e-03  7.804513e-02  9.711899e-01  1.352635e-01
2.181500e+00  9.770658e-01  6.775784e-02  -5.862560e-03  7.854509e-02  -5.861962e-03  7.853730e-02  9.715570e-01  1.320587e-01
2.182000e+00  9.772194e-01  6.429731e-02  -5.620654e-03  7.904010e-02  -5.620079e-03  7.903226e-02  9.719137e-01  1.288456e-01
2.182500e+00  9.773604e-01  6.082844e-02  -5.374933e-03  7.953791e-02  -5.374383e-03  7.953002e-02  9.722599e-01  1.256242e-01
2.183000e+00  9.774887e-01  5.735125e-02  -5.125350e-03  8.003853e-02  -5.124825e-03  8.003058e-02  9.725954e-01  1.223945e-01
2.183500e+00  9.776041e-01  5.386573e-02  -4.871855e-03  8.054196e-02  -4.871355e-03  8.053396e-02  9.729202e-01  1.191564e-01
2.184000e+00  9.777066e-01  5.037189e-02  -4.614400e-03  8.104822e-02  -4.613925e-03  8.104017e-02  9.732342e-01  1.159101e-01
2.184500e+00  9.777960e-01  4.686974e-02  -4.352932e-03  8.155731e-02  -4.352483e-03  8.154921e-02  9.735374e-01  1.126554e-01
2.185000e+00  9.778723e-01  4.335928e-02  -4.087402e-03  8.206924e-02  -4.086979e-03  8.206110e-02  9.738295e-01  1.093924e-01
2.185500e+00  9.779354e-01  3.984051e-02  -3.817757e-03  8.258403e-02  -3.817361e-03  8.257583e-02  9.741107e-01  1.061210e-01
2.186000e+00  9.779852e-01  3.631345e-02  -3.543946e-03  8.310167e-02  -3.543577e-03  8.309342e-02  9.743807e-01  1.028413e-01
2.186500e+00  9.780215e-01  3.277809e-02  -3.265916e-03  8.362219e-02  -3.265574e-03  8.361389e-02  9.746395e-01  9.955321e-02
2.187000e+00  9.780443e-01  2.923445e-02  -2.983612e-03  8.414557e-02  -2.983299e-03  8.413722e-02  9.748870e-01  9.625676e-02
2.187500e+00  9.780534e-01  2.568254e-02  -2.696981e-03  8.467185e-02  -2.696696e-03  8.466344e-02  9.751232e-01  9.295194e-02
2.188000e+00  9.780488e-01  2.212236e-02  -2.405968e-03  8.520101e-02  -2.405712e-03  8.519255e-02  9.753478e-01  8.963875e-02
2.188500e+00  9.780304e-01  1.855392e-02  -2.110517e-03  8.573307e-02  -2.110290e-03  8.572455e-02  9.755609e-01  8.631718e-02
2.189000e+00  9.779981e-01  1.497722e-02  -1.810572e-03  8.626803e-02  -1.810375e-03  8.625947e-02  9.757623e-01  8.298722e-02
2.189500e+00  9.779517e-01  1.139229e-02  -1.506077e-03  8.680590e-02  -1.505909e-03  8.679729e-02  9.759520e-01  7.964886e-02
2.190000e+00  9.778911e-01  7.799128e-03  -1.196972e-03  8.734670e-02  -1.196835e-03  8.733803e-02  9.761298e-01  7.630211e-02
2.190500e+00  9.778163e-01  4.197743e-03  -8.832003e-04  8.789042e-02  -8.830947e-04  8.788169e-02  9.762958e-01  7.294696e-02
2.191000e+00  9.777272e-01  5.881498e-04  -5.647025e-04  8.843706e-02  -5.646283e-04  8.842828e-02  9.764496e-01  6.958341e-02
2.191500e+00  9.776235e-01  -3.029641e-03  -2.414185e-04  8.898665e-02  -2.413763e-04  8.897781e-02  9.765914e-01  6.621144e-02
2.192000e+00  9.775053e-01  -6.655618e-03  8.671209e-05  8.953918e-02  8.672183e-05  8.953029e-02  9.767210e-01  6.283107e-02
2.192500e+00  9.773724e-01  -1.028977e-02  4.197507e-04  9.009465e-02  4.197275e-04  9.008570e-02  9.768382e-01  5.944228e-02
2.193000e+00  9.772246e-01  -1.393208e-02  7.577595e-04  9.065308e-02  7.577028e-04  9.064408e-02  9.769431e-01  5.604507e-02
2.193500e+00  9.770620e-01  -1.758253e-02  1.100801e-03  9.121446e-02  1.100711e-03  9.120540e-02  9.770354e-01  5.263944e-02
2.194000e+00  9.768843e-01  -2.124112e-02  1.448940e-03  9.177881e-02  1.448814e-03  9.176969e-02  9.771151e-01  4.922539e-02
2.194500e+00  9.766915e-01  -2.490782e-02  1.802239e-03  9.234612e-02  1.802079e-03  9.233695e-02  9.771822e-01  4.580292e-02
2.195000e+00  9.764834e-01  -2.858262e-02  2.160765e-03  9.291640e-02  2.160569e-03  9.290717e-02  9.772364e-01  4.237202e-02
2.195500e+00  9.762600e-01  -3.226551e-02  2.524583e-03  9.348965e-02  2.524351e-03  9.348037e-02  9.772777e-01  3.893270e-02
2.196000e+00  9.760210e-01  -3.595646e-02  2.893760e-03  9.406588e-02  2.893492e-03  9.405655e-02  9.773060e-01  3.548495e-02
2.196500e+00  9.757665e-01  -3.965547e-02  3.268364e-03  9.464510e-02  3.268059e-03  9.463570e-02  9.773212e-01  3.202878e-02
2.197000e+00  9.754962e-01  -4.336250e-02  3.648464e-03  9.522729e-02  3.648121e-03  9.521783e-02  9.773232e-01  2.856418e-02
2.197500e+00  9.752101e-01  -4.707755e-02  4.034128e-03  9.581247e-02  4.033747e-03  9.580295e-02  9.773119e-01  2.509115e-02
2.198000e+00  9.749080e-01  -5.080059e-02  4.425427e-03  9.640063e-02  4.425008e-03  9.639106e-02  9.772871e-01  2.160970e-02
2.198500e+00  9.745898e-01  -5.453160e-02  4.822433e-03  9.699178e-02  4.821974e-03  9.698215e-02  9.772488e-01  1.811984e-02
2.199000e+00  9.742554e-01  -5.827056e-02  5.225216e-03  9.758592e-02  5.224717e-03  9.757623e-02  9.771968e-01  1.462155e-02
2.199500e+00  9.739046e-01  -6.201745e-02  5.633850e-03  9.818305e-02  5.633311e-03  9.817330e-02  9.771311e-01  1.111484e-02
2.200000e+00  9.735374e-01  -6.577225e-02  6.048408e-03  9.878317e-02  6.047828e-03  9.877336e-02  9.770515e-01  7.599721e-03
2.200500e+00  9.731536e-01  -6.953493e-02  6.468966e-03  9.938628e-02  6.468344e-03  9.937641e-02  9.769580e-01  4.076192e-03
2.201000e+00  9.727531e-01  -7.330546e-02  6.895599e-03  9.999237e-02  6.894935e-03  9.998244e-02  9.768503e-01  5.442568e-04
2.201500e+00  9.723357e-01  -7.708383e-02  7.328382e-03  1.006015e-01  7.327676e-03  1.005915e-01  9.767285e-01  -2.996079e-03
2.202000e+00  9.719014e-01  -8.087001e-02  7.767395e-03  1.012135e-01  7.766644e-03  1.012035e-01  9.765923e-01  -6.544812e-03
2.202500e+00  9.714499e-01  -8.466397e-02  8.212714e-03  1.018286e-01  8.211920e-03  1.018185e-01  9.764417e-01  -1.010193e-02
2.203000e+00  9.709813e-01  -8.846568e-02  8.664420e-03  1.024466e-01  8.663580e-03  1.024364e-01  9.762765e-01  -1.366744e-02
2.203500e+00  9.704952e-01  -9.227512e-02  9.122592e-03  1.030676e-01  9.121707e-03  1.030574e-01  9.760967e-01  -1.724132e-02
2.204000e+00  9.699916e-01  -9.609225e-02  9.587312e-03  1.036916e-01  9.586381e-03  1.036813e-01  9.759021e-01  -2.082357e-02
2.204500e+00  9.694704e-01  -9.991704e-02  1.005866e-02  1.043186e-01  1.005768e-02  1.043082e-01  9.756925e-01  -2.441419e-02
2.205000e+00  9.689314e-01  -1.037495e-01  1.053673e-02  1.049485e-01  1.053570e-02  1.049381e-01  9.754680e-01  -2.801315e-02
2.205500e+00  9.683745e-01  -1.075895e-01  1.102159e-02  1.055814e-01  1.102051e-02  1.055709e-01  9.752282e-01  -3.162046e-02
2.206000e+00  9.677996e-01  -1.114371e-01  1.151333e-02  1.062172e-01  1.151221e-02  1.062067e-01  9.749732e-01  -3.523610e-02
2.206500e+00  9.672065e-01  -1.152922e-01  1.201204e-02  1.068560e-01  1.201087e-02  1.068454e-01  9.747028e-01  -3.886007e-02
2.207000e+00  9.665950e-01  -1.191549e-01  1.251781e-02  1.074977e-01  1.251659e-02  1.074871e-01  9.744168e-01  -4.249234e-02
2.207500e+00  9.659650e-01  -1.230250e-01  1.303073e-02  1.081424e-01  1.302946e-02  1.081317e-01  9.741152e-01  -4.613291e-02
2.208000e+00  9.653164e-01  -1.269025e-01  1.355088e-02  1.087900e-01  1.354955e-02  1.087792e-01  9.737978e-01  -4.978177e-02
2.208500e+00  9.646491e-01  -1.307874e-01  1.407835e-02  1.094405e-01  1.407698e-02  1.094296e-01  9.734645e-01  -5.343890e-02
2.209000e+00  9.639629e-01  -1.346796e-01  1.461324e-02  1.100939e-01  1.461181e-02  1.100830e-01  9.731151e-01  -5.710429e-02
2.209500e+00  9.632575e-01  -1.385792e-01  1.515564e-02  1.107502e-01  1.515416e-02  1.107392e-01  9.727495e-01  -6.077793e-02
2.210000e+00  9.625330e-01  -1.424860e-01  1.570565e-02  1.114094e-01  1.570411e-02  1.113984e-01  9.723676e-01  -6.445978e-02
2.210500e+00  9.617892e-01  -1.464000e-01  1.626335e-02  1.120715e-01  1.626176e-02  1.120604e-01  9.719693e-01  -6.814985e-02
2.211000e+00  9.610258e-01  -1.503213e-01  1.682885e-02  1.127364e-01  1.682720e-02  1.127252e-01  9.715543e-01  -7.184812e-02
2.211500e+00  9.602427e-01  -1.542496e-01  1.740224e-02  1.134042e-01  1.740053e-02  1.133929e-01  9.711226e-01  -7.555455e-02
2.212000e+00  9.594399e-01  -1.581851e-01  1.798362e-02  1.140748e-01  1.798186e-02  1.140635e-01  9.706741e-01  -7.926914e-02
2.212500e+00  9.586171e-01  -1.621275e-01  1.857309e-02  1.147482e-01  1.857127e-02  1.147368e-01  9.702085e-01  -8.299187e-02
2.213000e+00  9.577741e-01  -1.660770e-01  1.917075e-02  1.154245e-01  1.916887e-02  1.154130e-01  9.697258e-01  -8.672271e-02
2.213500e+00  9.569109e-01  -1.700334e-01  1.977670e-02  1.161035e-01  1.977476e-02  1.160919e-01  9.692258e-01  -9.046164e-02
2.214000e+00  9.560272e-01  -1.739967e-01  2.039105e-02  1.167853e-01  2.038905e-02  1.167737e-01  9.687083e-01  -9.420863e-02
2.214500e+00  9.551229e-01  -1.779668e-01  2.101391e-02  1.174698e-01  2.101184e-02  1.174581e-01  9.681733e-01  -9.796368e-02
2.215000e+00  9.541979e-01  -1.819437e-01  2.164536e-02  1.181571e-01  2.164324e-02  1.181453e-01  9.676205e-01  -1.017267e-01
2.215500e+00  9.532519e-01  -1.859273e-01  2.228553e-02  1.188470e-01  2.228335e-02  1.188352e-01  9.670498e-01  -1.054978e-01
2.216000e+00  9.522848e-01  -1.899176e-01  2.293453e-02  1.195397e-01  2.293228e-02  1.195278e-01  9.664611e-01  -1.092768e-01
2.216500e+00  9.512965e-01  -1.939144e-01  2.359245e-02  1.202350e-01  2.359013e-02  1.202231e-01  9.658541e-01  -1.130638e-01
2.217000e+00  9.502868e-01  -1.979179e-01  2.425942e-02  1.209330e-01  2.425703e-02  1.209210e-01  9.652289e-01  -1.168586e-01
2.217500e+00  9.492554e-01  -2.019278e-01  2.493554e-02  1.216336e-01  2.493309e-02  1.216215e-01  9.645851e-01  -1.206614e-01
2.218000e+00  9.482023e-01  -2.059441e-01  2.562092e-02  1.223367e-01  2.561840e-02  1.223246e-01  9.639227e-01  -1.244720e-01
2.218500e+00  9.471273e-01  -2.099668e-01  2.631569e-02  1.230425e-01  2.631310e-02  1.230303e-01  9.632414e-01  -1.282904e-01
2.219000e+00  9.460302e-01  -2.139957e-01  2.701996e-02  1.237508e-01  2.701730e-02  1.237385e-01  9.625412e-01  -1.321166e-01
2.219500e+00  9.449107e-01  -2.180309e-01  2.773384e-02  1.244616e-01  2.773111e-02  1.244492e-01  9.618219e-01  -1.359505e-01
2.220000e+00  9.437689e-01  -2.220722e-01  2.845746e-02  1.251748e-01  2.845466e-02  1.251624e-01  9.610832e-01  -1.397922e-01
2.220500e+00  9.426043e-01  -2.261196e-01  2.919093e-02  1.258905e-01  2.918806e-02  1.258780e-01  9.603251e-01  -1.436415e-01
2.221000e+00  9.414170e-01  -2.301730e-01  2.993437e-02  1.266087e-01  2.993143e-02  1.265961e-01  9.595473e-01  -1.474984e-01
2.221500e+00  9.402067e-01  -2.342323e-01  3.068792e-02  1.273292e-01  3.068490e-02  1.273165e-01  9.587497e-01  -1.513629e-01
2.222000e+00  9.389732e-01  -2.382975e-01  3.145169e-02  1.280520e-01  3.144859e-02  1.280393e-01  9.579322e-01  -1.552350e-01
2.222500e+00  9.377163e-01  -2.423684e-01  3.222580e-02  1.287772e-01  3.222263e-02  1.287644e-01  9.570945e-01  -1.591146e-01
2.223000e+00  9.364359e-01  -2.464450e-01  3.301039e-02  1.295046e-01  3.300714e-02  1.294917e-01  9.562365e-01  -1.630016e-01
2.223500e+00  9.351317e-01  -2.505272e-01  3.380559e-02  1.302343e-01  3.380226e-02  1.302213e-01  9.553580e-01  -1.668961e-01
2.224000e+00  9.338037e-01  -2.546149e-01  3.461152e-02  1.309661e-01  3.460811e-02  1.309531e-01  9.544589e-01  -1.707979e-01
2.224500e+00  9.324515e-01  -2.587080e-01  3.542831e-02  1.317001e-01  3.542482e-02  1.316870e-01  9.535389e-01  -1.747071e-01
2.225000e+00  9.310751e-01  -2.628065e-01  3.625611e-02  1.324362e-01  3.625253e-02  1.324230e-01  9.525979e-01  -1.786235e-01
2.225500e+00  9.296741e-01  -2.669102e-01  3.709503e-02  1.331743e-01  3.709138e-02  1.331611e-01  9.516357e-01  -1.825471e-01
2.226000e+00  9.282485e-01  -2.710191e-01  3.794523e-02  1.339145e-01  3.794149e-02  1.339012e-01  9.506520e-01  -1.864779e-01
2.226500e+00  9.267979e-01  -2.751330e-01  3.880683e-02  1.346566e-01  3.880300e-02  1.346432e-01  9.496468e-01  -1.904157e-01
2.227000e+00  9.253223e-01  -2.792519e-01  3.967997e-02  1.354006e-01  3.967606e-02  1.353872e-01  9.486199e-01  -1.943607e-01
2.227500e+00  9.238215e-01  -2.833756e-01  4.056480e-02  1.361465e-01  4.056080e-02  1.361330e-01  9.475710e-01  -1.983126e-01
2.228000e+00  9.222951e-01  -2.875040e-01  4.146146e-02  1.368942e-01  4.145737e-02  1.368806e-01  9.464999e-01  -2.022714e-01
2.228500e+00  9.207431e-01  -2.916371e-01  4.237009e-02  1.376436e-01  4.236591e-02  1.376299e-01  9.454066e-01  -2.062371e-01
2.229000e+00  9.191652e-01  -2.957748e-01  4.329083e-02  1.383947e-01  4.328656e-02  1.383810e-01  9.442907e-01  -2.102095e-01
2.229500e+00  9.175612e-01  -2.999168e-01  4.422383e-02  1.391475e-01  4.421947e-02  1.391336e-01  9.431520e-01  -2.141887e-01
2.230000e+00  9.159309e-01  -3.040632e-01  4.516925e-02  1.399018e-01  4.516479e-02  1.398879e-01  9.419905e-01  -2.181746e-01
2.230500e+00  9.142741e-01  -3.082137e-01  4.612722e-02  1.406576e-01  4.612267e-02  1.406436e-01  9.408058e-01  -2.221670e-01
2.231000e+00  9.125906e-01  -3.123683e-01  4.709791e-02  1.414148e-01  4.709326e-02  1.414008e-01  9.395979e-01  -2.261660e-01
2.231500e+00  9.108801e-01  -3.165269e-01  4.808146e-02  1.421734e-01  4.807672e-02  1.421593e-01  9.383664e-01  -2.301713e-01
2.232000e+00  9.091426e-01  -3.206893e-01  4.907803e-02  1.429333e-01  4.907319e-02  1.429191e-01  9.371111e-01  -2.341831e-01
2.232500e+00  9.073777e-01  -3.248554e-01  5.008777e-02  1.436945e-01  5.008283e-02  1.436802e-01  9.358320e-01  -2.382011e-01
2.233000e+00  9.055852e-01  -3.290250e-01  5.111085e-02  1.444568e-01  5.110580e-02  1.444424e-01  9.345286e-01  -2.422253e-01
2.233500e+00  9.037649e-01  -3.331981e-01  5.214741e-02  1.452201e-01  5.214226e-02  1.452057e-01  9.332010e-01  -2.462556e-01
2.234000e+00  9.019167e-01  -3.373744e-01  5.319763e-02  1.459845e-01  5.319238e-02  1.459699e-01  9.318487e-01  -2.502919e-01
2.234500e+00  9.000402e-01  -3.415539e-01  5.426166e-02  1.467497e-01  5.425631e-02  1.467351e-01  9.304717e-01  -2.543342e-01
2.235000e+00  8.981353e-01  -3.457365e-01  5.533967e-02  1.475158e-01  5.533421e-02  1.475011e-01  9.290697e-01  -2.583823e-01
2.235500e+00  8.962017e-01  -3.499219e-01  5.643183e-02  1.482826e-01  5.642626e-02  1.482679e-01  9.276424e-01  -2.624361e-01
2.236000e+00  8.942392e-01  -3.541099e-01  5.753830e-02  1.490501e-01  5.753261e-02  1.490353e-01  9.261897e-01  -2.664956e-01
2.236500e+00  8.922476e-01  -3.583006e-01  5.865924e-02  1.498181e-01  5.865345e-02  1.498032e-01  9.247114e-01  -2.705606e-01
2.237000e+00  8.902266e-01  -3.624937e-01  5.979484e-02  1.505866e-01  5.978894e-02  1.505717e-01  9.232072e-01  -2.746310e-01
2.237500e+00  8.881761e-01  -3.666890e-01  6.094527e-02  1.513555e-01  6.093925e-02  1.513405e-01  9.216768e-01  -2.787068e-01
2.238000e+00  8.860957e-01  -3.708863e-01  6.211069e-02  1.521246e-01  6.210455e-02  1.521095e-01  9.201201e-01  -2.827878e-01
2.238500e+00  8.839853e-01  -3.750856e-01  6.329128e-02  1.528939e-01  6.328503e-02  1.528787e-01  9.185369e-01  -2.868739e-01
2.239000e+00  8.818446e-01  -3.792867e-01  6.448722e-02  1.536633e-01  6.448085e-02  1.536480e-01  9.169268e-01  -2.909651e-01
2.239500e+00  8.796734e-01  -3.834893e-01  6.569870e-02  1.544325e-01  6.569221e-02  1.544172e-01  9.152897e-01  -2.950610e-01
2.240000e+00  8.774715e-01  -3.876932e-01  6.692588e-02  1.552017e-01  6.691927e-02  1.551862e-01  9.136253e-01  -2.991618e-01
2.240500e+00  8.752386e-01  -3.918984e-01  6.816895e-02  1.559705e-01  6.816222e-02  1.559550e-01  9.119334e-01  -3.032672e-01
2.241000e+00  8.729744e-01  -3.961046e-01  6.942810e-02  1.567389e-01  6.942124e-02  1.567234e-01  9.102137e-01  -3.073770e-01
2.241500e+00  8.706787e-01  -4.003116e-01  7.070351e-02  1.575068e-01  7.069652e-02  1.574912e-01  9.084661e-01  -3.114913e-01
2.242000e+00  8.683514e-01  -4.045193e-01  7.199537e-02  1.582741e-01  7.198825e-02  1.582584e-01  9.066902e-01  -3.156097e-01
2.242500e+00  8.659920e-01  -4.087273e-01  7.330386e-02  1.590406e-01  7.329661e-02  1.590248e-01  9.048858e-01  -3.197323e-01
2.243000e+00  8.636005e-01  -4.129356e-01  7.462918e-02  1.598061e-01  7.462180e-02  1.597903e-01  9.030526e-01  -3.238588e-01
2.243500e+00  8.611765e-01  -4.171440e-01  7.597151e-02  1.605707e-01  7.596400e-02  1.605547e-01  9.011905e-01  -3.279892e-01
2.244000e+00  8.587198e-01  -4.213521e-01  7.733106e-02  1.613340e-01  7.732341e-02  1.613180e-01  8.992992e-01  -3.321231e-01
2.244500e+00  8.562301e-01  -4.255598e-01  7.870801e-02  1.620960e-01  7.870022e-02  1.620799e-01  8.973783e-01  -3.362606e-01
2.245000e+00  8.537072e-01  -4.297668e-01  8.010256e-02  1.628565e-01  8.009464e-02  1.628403e-01  8.954277e-01  -3.404014e-01
2.245500e+00  8.511508e-01  -4.339730e-01  8.151491e-02  1.636153e-01  8.150685e-02  1.635991e-01  8.934470e-01  -3.445454e-01
2.246000e+00  8.485608e-01  -4.381781e-01  8.294526e-02  1.643724e-01  8.293706e-02  1.643561e-01  8.914361e-01  -3.486924e-01
2.246500e+00  8.459367e-01  -4.423819e-01  8.439381e-02  1.651275e-01  8.438546e-02  1.651111e-01  8.893947e-01  -3.528423e-01
2.247000e+00  8.432785e-01  -4.465841e-01  8.586076e-02  1.658805e-01  8.585227e-02  1.658641e-01  8.873225e-01  -3.569948e-01
2.247500e+00  8.405857e-01  -4.507844e-01  8.734631e-02  1.666313e-01  8.733767e-02  1.666147e-01  8.852191e-01  -3.611498e-01
2.248000e+00  8.378582e-01  -4.549827e-01  8.885067e-02  1.673795e-01  8.884189e-02  1.673629e-01  8.830845e-01  -3.653072e-01
2.248500e+00  8.350957e-01  -4.591787e-01  9.037406e-02  1.681251e-01  9.036512e-02  1.681084e-01  8.809182e-01  -3.694666e-01
2.249000e+00  8.322979e-01  -4.633720e-01  9.191666e-02  1.688679e-01  9.190757e-02  1.688511e-01  8.787201e-01  -3.736279e-01
2.249500e+00  8.294646e-01  -4.675625e-01  9.347870e-02  1.696077e-01  9.346946e-02  1.695909e-01  8.764898e-01  -3.777910e-01
2.250000e+00  8.265955e-01  -4.717498e-01  9.506038e-02  1.703443e-01  9.505098e-02  1.703274e-01  8.742271e-01  -3.819556e-01
2.250500e+00  8.236903e-01  -4.759337e-01  9.666192e-02  1.710775e-01  9.665236e-02  1.710605e-01  8.719317e-01  -3.861215e-01
2.251000e+00  8.207488e-01  -4.801139e-01  9.828353e-02  1.718071e-01  9.827381e-02  1.717900e-01  8.696033e-01  -3.902886e-01
2.251500e+00  8.177707e-01  -4.842900e-01  9.992542e-02  1.725328e-01  9.991554e-02  1.725157e-01  8.672416e-01  -3.944564e-01
2.252000e+00  8.147557e-01  -4.884619e-01  1.015878e-01  1.732546e-01  1.015778e-01  1.732374e-01  8.648463e-01  -3.986250e-01
2.252500e+00  8.117037e-01  -4.926291e-01  1.032709e-01  1.739721e-01  1.032607e-01  1.739548e-01  8.624173e-01  -4.027940e-01
2.253000e+00  8.086142e-01  -4.967915e-01  1.049749e-01  1.746851e-01  1.049646e-01  1.746678e-01  8.599541e-01  -4.069631e-01
2.253500e+00  8.054871e-01  -5.009485e-01  1.067001e-01  1.753935e-01  1.066896e-01  1.753760e-01  8.574565e-01  -4.111323e-01
2.254000e+00  8.023221e-01  -5.051000e-01  1.084467e-01  1.760969e-01  1.084360e-01  1.760794e-01  8.549242e-01  -4.153011e-01
2.254500e+00  7.991188e-01  -5.092456e-01  1.102148e-01  1.767951e-01  1.102039e-01  1.767776e-01  8.523569e-01  -4.194693e-01
2.255000e+00  7.958771e-01  -5.133850e-01  1.120048e-01  1.774880e-01  1.119937e-01  1.774703e-01  8.497543e-01  -4.236368e-01
2.255500e+00  7.925967e-01  -5.175177e-01  1.138168e-01  1.781751e-01  1.138055e-01  1.781574e-01  8.471161e-01  -4.278032e-01
2.256000e+00  7.892772e-01  -5.216436e-01  1.156510e-01  1.788564e-01  1.156396e-01  1.788386e-01  8.444421e-01  -4.319682e-01
2.256500e+00  7.859185e-01  -5.257621e-01  1.175077e-01  1.795314e-01  1.174961e-01  1.795135e-01  8.417319e-01  -4.361316e-01
2.257000e+00  7.825202e-01  -5.298729e-01  1.193872e-01  1.801999e-01  1.193753e-01  1.801820e-01  8.389852e-01  -4.402931e-01
2.257500e+00  7.790821e-01  -5.339757e-01  1.212895e-01  1.808618e-01  1.212775e-01  1.808438e-01  8.362017e-01  -4.444525e-01
2.258000e+00  7.756039e-01  -5.380701e-01  1.232150e-01  1.815165e-01  1.232028e-01  1.814985e-01  8.333812e-01  -4.486093e-01
2.258500e+00  7.720854e-01  -5.421557e-01  1.251639e-01  1.821640e-01  1.251515e-01  1.821459e-01  8.305233e-01  -4.527633e-01
2.259000e+00  7.685262e-01  -5.462320e-01  1.271364e-01  1.828038e-01  1.271238e-01  1.827856e-01  8.276277e-01  -4.569141e-01
2.259500e+00  7.649262e-01  -5.502987e-01  1.291327e-01  1.834357e-01  1.291199e-01  1.834175e-01  8.246942e-01  -4.610616e-01
2.260000e+00  7.612850e-01  -5.543553e-01  1.311531e-01  1.840594e-01  1.311401e-01  1.840411e-01  8.217223e-01  -4.652053e-01
2.260500e+00  7.576023e-01  -5.584015e-01  1.331977e-01  1.846744e-01  1.331845e-01  1.846561e-01  8.187119e-01  -4.693449e-01
2.261000e+00  7.538780e-01  -5.624368e-01  1.352669e-01  1.852806e-01  1.352535e-01  1.852622e-01  8.156626e-01  -4.734800e-01
2.261500e+00  7.501117e-01  -5.664608e-01  1.373608e-01  1.858776e-01  1.373472e-01  1.858591e-01  8.125740e-01  -4.776103e-01
2.262000e+00  7.463031e-01  -5.704729e-01  1.394796e-01  1.864649e-01  1.394658e-01  1.864464e-01  8.094460e-01  -4.817355e-01
2.262500e+00  7.424521e-01  -5.744728e-01  1.416236e-01  1.870424e-01  1.416096e-01  1.870238e-01  8.062781e-01  -4.858552e-01
2.263000e+00  7.385583e-01  -5.784600e-01  1.437931e-01  1.876095e-01  1.437788e-01  1.875909e-01  8.030701e-01  -4.899690e-01
2.263500e+00  7.346215e-01  -5.824341e-01  1.459881e-01  1.881660e-01  1.459737e-01  1.881473e-01  7.998216e-01  -4.940765e-01
2.264000e+00  7.306415e-01  -5.863944e-01  1.482090e-01  1.887115e-01  1.481944e-01  1.886927e-01  7.965325e-01  -4.981773e-01
2.264500e+00  7.266179e-01  -5.903405e-01  1.504560e-01  1.892455e-01  1.504411e-01  1.892267e-01  7.932022e-01  -5.022711e-01
2.265000e+00  7.225505e-01  -5.942720e-01  1.527293e-01  1.897677e-01  1.527142e-01  1.897489e-01  7.898306e-01  -5.063573e-01
2.265500e+00  7.184391e-01  -5.981883e-01  1.550291e-01  1.902777e-01  1.550137e-01  1.902588e-01  7.864173e-01  -5.104357e-01
2.266000e+00  7.142835e-01  -6.020888e-01  1.573556e-01  1.907751e-01  1.573400e-01  1.907561e-01  7.829621e-01  -5.145057e-01
2.266500e+00  7.100833e-01  -6.059731e-01  1.597091e-01  1.912594e-01  1.596933e-01  1.912404e-01  7.794645e-01  -5.185670e-01
2.267000e+00  7.058383e-01  -6.098406e-01  1.620897e-01  1.917302e-01  1.620737e-01  1.917111e-01  7.759243e-01  -5.226191e-01
2.267500e+00  7.015483e-01  -6.136908e-01  1.644977e-01  1.921871e-01  1.644814e-01  1.921680e-01  7.723413e-01  -5.266614e-01
2.268000e+00  6.972130e-01  -6.175230e-01  1.669333e-01  1.926296e-01  1.669168e-01  1.926105e-01  7.687150e-01  -5.306937e-01
2.268500e+00  6.928322e-01  -6.213367e-01  1.693967e-01  1.930573e-01  1.693799e-01  1.930381e-01  7.650453e-01  -5.347153e-01
2.269000e+00  6.884058e-01  -6.251313e-01  1.718881e-01  1.934697e-01  1.718711e-01  1.934504e-01  7.613317e-01  -5.387258e-01
2.269500e+00  6.839333e-01  -6.289063e-01  1.744077e-01  1.938663e-01  1.743904e-01  1.938470e-01  7.575740e-01  -5.427246e-01
2.270000e+00  6.794147e-01  -6.326609e-01  1.769557e-01  1.942466e-01  1.769382e-01  1.942273e-01  7.537719e-01  -5.467114e-01
2.270500e+00  6.748497e-01  -6.363946e-01  1.795323e-01  1.946101e-01  1.795145e-01  1.945907e-01  7.499250e-01  -5.506855e-01
2.271000e+00  6.702381e-01  -6.401068e-01  1.821377e-01  1.949564e-01  1.821196e-01  1.949370e-01  7.460332e-01  -5.546465e-01
2.271500e+00  6.655797e-01  -6.437968e-01  1.847721e-01  1.952848e-01  1.847538e-01  1.952654e-01  7.420960e-01  -5.585937e-01
2.272000e+00  6.608742e-01  -6.474639e-01  1.874356e-01  1.955949e-01  1.874170e-01  1.955754e-01  7.381133e-01  -5.625267e-01
2.272500e+00  6.561215e-01  -6.511075e-01  1.901285e-01  1.958861e-01  1.901097e-01  1.958666e-01  7.340847e-01  -5.664448e-01
2.273000e+00  6.513214e-01  -6.547270e-01  1.928510e-01  1.961579e-01  1.928319e-01  1.961383e-01  7.300099e-01  -5.703475e-01
2.273500e+00  6.464737e-01  -6.583215e-01  1.956031e-01  1.964096e-01  1.955837e-01  1.963901e-01  7.258887e-01  -5.742342e-01
2.274000e+00  6.415782e-01  -6.618904e-01  1.983852e-01  1.966408e-01  1.983655e-01  1.966212e-01  7.217208e-01  -5.781043e-01
2.274500e+00  6.366348e-01  -6.654330e-01  2.011972e-01  1.968508e-01  2.011773e-01  1.968312e-01  7.175058e-01  -5.819572e-01
2.275000e+00  6.316432e-01  -6.689486e-01  2.040395e-01  1.970390e-01  2.040193e-01  1.970194e-01  7.132436e-01  -5.857923e-01
2.275500e+00  6.266033e-01  -6.724364e-01  2.069121e-01  1.972048e-01  2.068916e-01  1.971852e-01  7.089338e-01  -5.896088e-01
2.276000e+00  6.215150e-01  -6.758957e-01  2.098153e-01  1.973476e-01  2.097945e-01  1.973280e-01  7.045763e-01  -5.934062e-01
2.276500e+00  6.163780e-01  -6.793256e-01  2.127490e-01  1.974668e-01  2.127279e-01  1.974471e-01  7.001707e-01  -5.971839e-01
2.277000e+00  6.111924e-01  -6.827255e-01  2.157136e-01  1.975616e-01  2.156922e-01  1.975420e-01  6.957168e-01  -6.009410e-01
2.277500e+00  6.059579e-01  -6.860945e-01  2.187090e-01  1.976315e-01  2.186873e-01  1.976118e-01  6.912143e-01  -6.046770e-01
2.278000e+00  6.006744e-01  -6.894319e-01  2.217355e-01  1.976757e-01  2.217135e-01  1.976561e-01  6.866630e-01  -6.083911e-01
2.278500e+00  5.953418e-01  -6.927367e-01  2.247931e-01  1.976937e-01  2.247708e-01  1.976740e-01  6.820627e-01  -6.120826e-01
2.279000e+00  5.899601e-01  -6.960082e-01  2.278819e-01  1.976846e-01  2.278593e-01  1.976649e-01  6.774132e-01  -6.157508e-01
2.279500e+00  5.845290e-01  -6.992456e-01  2.310020e-01  1.976477e-01  2.309791e-01  1.976280e-01  6.727142e-01  -6.193949e-01
2.280000e+00  5.790486e-01  -7.024478e-01  2.341536e-01  1.975824e-01  2.341304e-01  1.975627e-01  6.679654e-01  -6.230142e-01
2.280500e+00  5.735188e-01  -7.056142e-01  2.373367e-01  1.974879e-01  2.373132e-01  1.974682e-01  6.631668e-01  -6.266079e-01
2.281000e+00  5.679395e-01  -7.087438e-01  2.405513e-01  1.973634e-01  2.405275e-01  1.973437e-01  6.583181e-01  -6.301752e-01
2.281500e+00  5.623107e-01  -7.118357e-01  2.437976e-01  1.972082e-01  2.437734e-01  1.971886e-01  6.534191e-01  -6.337153e-01
2.282000e+00  5.566323e-01  -7.148890e-01  2.470755e-01  1.970215e-01  2.470510e-01  1.970019e-01  6.484697e-01  -6.372274e-01
2.282500e+00  5.509044e-01  -7.179028e-01  2.503851e-01  1.968025e-01  2.503603e-01  1.967829e-01  6.434696e-01  -6.407107e-01
2.283000e+00  5.451268e-01  -7.208761e-01  2.537264e-01  1.965504e-01  2.537013e-01  1.965308e-01  6.384187e-01  -6.441643e-01
2.283500e+00  5.392997e-01  -7.238080e-01  2.570995e-01  1.962643e-01  2.570740e-01  1.962448e-01  6.333169e-01  -6.475873e-01
2.284000e+00  5.334231e-01  -7.266974e-01  2.605043e-01  1.959436e-01  2.604784e-01  1.959241e-01  6.281640e-01  -6.509789e-01
2.284500e+00  5.274970e-01  -7.295435e-01  2.639408e-01  1.955872e-01  2.639146e-01  1.955677e-01  6.229599e-01  -6.543382e-01
2.285000e+00  5.215214e-01  -7.323453e-01  2.674090e-01  1.951943e-01  2.673825e-01  1.951749e-01  6.177044e-01  -6.576643e-01
2.285500e+00  5.154964e-01  -7.351016e-01  2.709088e-01  1.947642e-01  2.708820e-01  1.947448e-01  6.123975e-01  -6.609562e-01
2.286000e+00  5.094221e-01  -7.378115e-01  2.744403e-01  1.942958e-01  2.744131e-01  1.942764e-01  6.070391e-01  -6.642131e-01
2.286500e+00  5.032986e-01  -7.404740e-01  2.780032e-01  1.937883e-01  2.779757e-01  1.937690e-01  6.016291e-01  -6.674339e-01
2.287000e+00  4.971261e-01  -7.430881e-01  2.815976e-01  1.932407e-01  2.815697e-01  1.932215e-01  5.961674e-01  -6.706178e-01
2.287500e+00  4.909047e-01  -7.456525e-01  2.852234e-01  1.926522e-01  2.851951e-01  1.926330e-01  5.906539e-01  -6.737636e-01
2.288000e+00  4.846344e-01  -7.481664e-01  2.888803e-01  1.920218e-01  2.888516e-01  1.920026e-01  5.850887e-01  -6.768705e-01
2.288500e+00  4.783157e-01  -7.506285e-01  2.925683e-01  1.913485e-01  2.925393e-01  1.913294e-01  5.794718e-01  -6.799374e-01
2.289000e+00  4.719485e-01  -7.530378e-01  2.962872e-01  1.906314e-01  2.962578e-01  1.906124e-01  5.738030e-01  -6.829633e-01
2.289500e+00  4.655332e-01  -7.553932e-01  3.000368e-01  1.898695e-01  3.000071e-01  1.898506e-01  5.680825e-01  -6.859471e-01
2.290000e+00  4.590699e-01  -7.576935e-01  3.038170e-01  1.890618e-01  3.037869e-01  1.890429e-01  5.623103e-01  -6.888878e-01
2.290500e+00  4.525590e-01  -7.599377e-01  3.076275e-01  1.882072e-01  3.075970e-01  1.881885e-01  5.564863e-01  -6.917844e-01
2.291000e+00  4.460008e-01  -7.621245e-01  3.114681e-01  1.873049e-01  3.114373e-01  1.872862e-01  5.506107e-01  -6.946356e-01
2.291500e+00  4.393955e-01  -7.642528e-01  3.153386e-01  1.863537e-01  3.153073e-01  1.863351e-01  5.446836e-01  -6.974405e-01
2.292000e+00  4.327436e-01  -7.663215e-01  3.192386e-01  1.853525e-01  3.192069e-01  1.853341e-01  5.387051e-01  -7.001979e-01
2.292500e+00  4.260452e-01  -7.683292e-01  3.231678e-01  1.843005e-01  3.231357e-01  1.842821e-01  5.326753e-01  -7.029066e-01
2.293000e+00  4.193010e-01  -7.702750e-01  3.271259e-01  1.831964e-01  3.270935e-01  1.831781e-01  5.265943e-01  -7.055656e-01
2.293500e+00  4.125112e-01  -7.721574e-01  3.311127e-01  1.820392e-01  3.310798e-01  1.820210e-01  5.204623e-01  -7.081737e-01
2.294000e+00  4.056763e-01  -7.739754e-01  3.351276e-01  1.808277e-01  3.350943e-01  1.808097e-01  5.142796e-01  -7.107296e-01
2.294500e+00  3.987968e-01  -7.757277e-01  3.391703e-01  1.795610e-01  3.391367e-01  1.795431e-01  5.080463e-01  -7.132323e-01
2.295000e+00  3.918733e-01  -7.774131e-01  3.432404e-01  1.782379e-01  3.432063e-01  1.782202e-01  5.017627e-01  -7.156804e-01
2.295500e+00  3.849061e-01  -7.790303e-01  3.473374e-01  1.768573e-01  3.473029e-01  1.768397e-01  4.954290e-01  -7.180729e-01
2.296000e+00  3.778959e-01  -7.805781e-01  3.514608e-01  1.754180e-01  3.514259e-01  1.754005e-01  4.890456e-01  -7.204084e-01
2.296500e+00  3.708433e-01  -7.820552e-01  3.556101e-01  1.739189e-01  3.555748e-01  1.739015e-01  4.826127e-01  -7.226857e-01
2.297000e+00  3.637489e-01  -7.834604e-01  3.597848e-01  1.723588e-01  3.597491e-01  1.723416e-01  4.761308e-01  -7.249036e-01
2.297500e+00  3.566133e-01  -7.847923e-01  3.639843e-01  1.707367e-01  3.639482e-01  1.707196e-01  4.696001e-01  -7.270608e-01
2.298000e+00  3.494373e-01  -7.860498e-01  3.682080e-01  1.690512e-01  3.681715e-01  1.690344e-01  4.630211e-01  -7.291561e-01
2.298500e+00  3.422216e-01  -7.872315e-01  3.724552e-01  1.673014e-01  3.724183e-01  1.672847e-01  4.563943e-01  -7.311881e-01
2.299000e+00  3.349669e-01  -7.883361e-01  3.767254e-01  1.654859e-01  3.766880e-01  1.654694e-01  4.497201e-01  -7.331556e-01
2.299500e+00  3.276741e-01  -7.893624e-01  3.810177e-01  1.636036e-01  3.809799e-01  1.635873e-01  4.429990e-01  -7.350572e-01
2.300000e+00  3.203439e-01  -7.903091e-01  3.853315e-01  1.616533e-01  3.852932e-01  1.616372e-01  4.362316e-01  -7.368917e-01
2.300500e+00  3.129773e-01  -7.911748e-01  3.896659e-01  1.596338e-01  3.896273e-01  1.596179e-01  4.294183e-01  -7.386576e-01
2.301000e+00  3.055751e-01  -7.919583e-01  3.940202e-01  1.575440e-01  3.939812e-01  1.575283e-01  4.225599e-01  -7.403538e-01
2.301500e+00  2.981383e-01  -7.926583e-01  3.983936e-01  1.553826e-01  3.983541e-01  1.553671e-01  4.156569e-01  -7.419788e-01
2.302000e+00  2.906679e-01  -7.932735e-01  4.027851e-01  1.531484e-01  4.027452e-01  1.531331e-01  4.087100e-01  -7.435314e-01
2.302500e+00  2.831648e-01  -7.938026e-01  4.071939e-01  1.508403e-01  4.071535e-01  1.508252e-01  4.017199e-01  -7.450101e-01
2.303000e+00  2.756303e-01  -7.942443e-01  4.116189e-01  1.484569e-01  4.115780e-01  1.484421e-01  3.946874e-01  -7.464136e-01
2.303500e+00  2.680653e-01  -7.945974e-01  4.160591e-01  1.459972e-01  4.160179e-01  1.459826e-01  3.876132e-01  -7.477406e-01
2.304000e+00  2.604711e-01  -7.948605e-01  4.205137e-01  1.434599e-01  4.204719e-01  1.434456e-01  3.804982e-01  -7.489897e-01
2.304500e+00  2.528488e-01  -7.950324e-01  4.249813e-01  1.408439e-01  4.249392e-01  1.408298e-01  3.733433e-01  -7.501595e-01
2.305000e+00  2.451997e-01  -7.951118e-01  4.294610e-01  1.381479e-01  4.294184e-01  1.381341e-01  3.661492e-01  -7.512487e-01
2.305500e+00  2.375250e-01  -7.950975e-01  4.339516e-01  1.353708e-01  4.339085e-01  1.353572e-01  3.589171e-01  -7.522560e-01
2.306000e+00  2.298261e-01  -7.949882e-01  4.384518e-01  1.325113e-01  4.384083e-01  1.324981e-01  3.516478e-01  -7.531799e-01
2.306500e+00  2.221043e-01  -7.947827e-01  4.429605e-01  1.295684e-01  4.429165e-01  1.295554e-01  3.443424e-01  -7.540191e-01
2.307000e+00  2.143611e-01  -7.944798e-01  4.474763e-01  1.265408e-01  4.474319e-01  1.265282e-01  3.370020e-01  -7.547722e-01
2.307500e+00  2.065979e-01  -7.940782e-01  4.519978e-01  1.234275e-01  4.519530e-01  1.234151e-01  3.296277e-01  -7.554380e-01
2.308000e+00  1.988162e-01  -7.935769e-01  4.565238e-01  1.202272e-01  4.564785e-01  1.202152e-01  3.222206e-01  -7.560150e-01
2.308500e+00  1.910176e-01  -7.929746e-01  4.610527e-01  1.169389e-01  4.610070e-01  1.169272e-01  3.147819e-01  -7.565020e-01
2.309000e+00  1.832036e-01  -7.922701e-01  4.655832e-01  1.135614e-01  4.655370e-01  1.135501e-01  3.073130e-01  -7.568975e-01
2.309500e+00  1.753760e-01  -7.914624e-01  4.701136e-01  1.100937e-01  4.700669e-01  1.100827e-01  2.998151e-01  -7.572004e-01
2.310000e+00  1.675364e-01  -7.905503e-01  4.746424e-01  1.065347e-01  4.745953e-01  1.065240e-01  2.922895e-01  -7.574093e-01
2.310500e+00  1.596866e-01  -7.895327e-01  4.791680e-01  1.028833e-01  4.791204e-01  1.028730e-01  2.847376e-01  -7.575228e-01
2.311000e+00  1.518283e-01  -7.884087e-01  4.836887e-01  9.913854e-02  4.836407e-01  9.912860e-02  2.771609e-01  -7.575398e-01
2.311500e+00  1.439634e-01  -7.871771e-01  4.882028e-01  9.529936e-02  4.881544e-01  9.528980e-02  2.695609e-01  -7.574590e-01
2.312000e+00  1.360938e-01  -7.858370e-01  4.927086e-01  9.136480e-02  4.926597e-01  9.135563e-02  2.619391e-01  -7.572791e-01
2.312500e+00  1.282214e-01  -7.843875e-01  4.972043e-01  8.733391e-02  4.971549e-01  8.732513e-02  2.542971e-01  -7.569990e-01
2.313000e+00  1.203482e-01  -7.828275e-01  5.016879e-01  8.320575e-02  5.016381e-01  8.319738e-02  2.466366e-01  -7.566173e-01
2.313500e+00  1.124762e-01  -7.811561e-01  5.061577e-01  7.897944e-02  5.061074e-01  7.897149e-02  2.389591e-01  -7.561330e-01
2.314000e+00  1.046074e-01  -7.793726e-01  5.106115e-01  7.465411e-02  5.105609e-01  7.464659e-02  2.312665e-01  -7.555450e-01
2.314500e+00  9.674412e-02  -7.774761e-01  5.150476e-01  7.022893e-02  5.149965e-01  7.022185e-02  2.235605e-01  -7.548520e-01
2.315000e+00  8.888837e-02  -7.754659e-01  5.194637e-01  6.570313e-02  5.194121e-01  6.569649e-02  2.158430e-01  -7.540530e-01
2.315500e+00  8.104240e-02  -7.733411e-01  5.238579e-01  6.107594e-02  5.238059e-01  6.106976e-02  2.081158e-01  -7.531469e-01
2.316000e+00  7.320847e-02  -7.711012e-01  5.282279e-01  5.634665e-02  5.281754e-01  5.634094e-02  2.003809e-01  -7.521328e-01
2.316500e+00  6.538888e-02  -7.687454e-01  5.325716e-01  5.151460e-02  5.325187e-01  5.150937e-02  1.926403e-01  -7.510096e-01
2.317000e+00  5.758597e-02  -7.662732e-01  5.368867e-01  4.657916e-02  5.368335e-01  4.657443e-02  1.848959e-01  -7.497764e-01
2.317500e+00  4.980212e-02  -7.636840e-01  5.411711e-01  4.153977e-02  5.411174e-01  4.153553e-02  1.771499e-01  -7.484322e-01
2.318000e+00  4.203978e-02  -7.609775e-01  5.454223e-01  3.639588e-02  5.453682e-01  3.639216e-02  1.694043e-01  -7.469762e-01
2.318500e+00  3.430139e-02  -7.581530e-01  5.496381e-01  3.114704e-02  5.495835e-01  3.114383e-02  1.616614e-01  -7.454077e-01
2.319000e+00  2.658947e-02  -7.552104e-01  5.538159e-01  2.579281e-02  5.537609e-01  2.579013e-02  1.539234e-01  -7.437256e-01
2.319500e+00  1.890656e-02  -7.521492e-01  5.579534e-01  2.033283e-02  5.578980e-01  2.033069e-02  1.461925e-01  -7.419295e-01
2.320000e+00  1.125525e-02  -7.489692e-01  5.620480e-01  1.476679e-02  5.619922e-01  1.476521e-02  1.384710e-01  -7.400185e-01
2.320500e+00  3.638143e-03  -7.456703e-01  5.660973e-01  9.094450e-03  5.660411e-01  9.093428e-03  1.307613e-01  -7.379921e-01
2.321000e+00  -3.942109e-03  -7.422523e-01  5.700987e-01  3.315618e-03  5.700421e-01  3.315169e-03  1.230658e-01  -7.358496e-01
2.321500e+00  -1.148283e-02  -7.387153e-01  5.740496e-01  -2.569825e-03  5.739926e-01  -2.569691e-03  1.153868e-01  -7.335906e-01
2.322000e+00  -1.898130e-02  -7.350591e-01  5.779474e-01  -8.561935e-03  5.778900e-01  -8.561207e-03  1.077270e-01  -7.312146e-01
2.322500e+00  -2.643479e-02  -7.312840e-01  5.817893e-01  -1.466070e-02  5.817316e-01  -1.465937e-02  1.000887e-01  -7.287212e-01
2.323000e+00  -3.384054e-02  -7.273901e-01  5.855728e-01  -2.086603e-02  5.855146e-01  -2.086408e-02  9.247452e-02  -7.261100e-01
2.323500e+00  -4.119576e-02  -7.233776e-01  5.892950e-01  -2.717778e-02  5.892365e-01  -2.717520e-02  8.488707e-02  -7.233809e-01
2.324000e+00  -4.849764e-02  -7.192470e-01  5.929533e-01  -3.359570e-02  5.928944e-01  -3.359249e-02  7.732895e-02  -7.205335e-01
2.324500e+00  -5.574337e-02  -7.149985e-01  5.965448e-01  -4.011951e-02  5.964856e-01  -4.011565e-02  6.980280e-02  -7.175677e-01
2.325000e+00  -6.293009e-02  -7.106328e-01  6.000668e-01  -4.674880e-02  6.000072e-01  -4.674428e-02  6.231130e-02  -7.144836e-01
2.325500e+00  -7.005495e-02  -7.061503e-01  6.035164e-01  -5.348311e-02  6.034565e-01  -5.347793e-02  5.485716e-02  -7.112811e-01
2.326000e+00  -7.711508e-02  -7.015518e-01  6.068908e-01  -6.032191e-02  6.068305e-01  -6.031605e-02  4.744311e-02  -7.079602e-01
2.326500e+00  -8.410762e-02  -6.968380e-01  6.101872e-01  -6.726455e-02  6.101266e-01  -6.725800e-02  4.007190e-02  -7.045212e-01
2.327000e+00  -9.102967e-02  -6.920097e-01  6.134026e-01  -7.431032e-02  6.133417e-01  -7.430307e-02  3.274631e-02  -7.009644e-01
2.327500e+00  -9.787837e-02  -6.870678e-01  6.165343e-01  -8.145842e-02  6.164731e-01  -8.145046e-02  2.546913e-02  -6.972899e-01
2.328000e+00  -1.046508e-01  -6.820135e-01  6.195794e-01  -8.870797e-02  6.195178e-01  -8.869929e-02  1.824317e-02  -6.934982e-01
2.328500e+00  -1.113442e-01  -6.768477e-01  6.225348e-01  -9.605797e-02  6.224730e-01  -9.604857e-02  1.107126e-02  -6.895899e-01
2.329000e+00  -1.179555e-01  -6.715718e-01  6.253979e-01  -1.035074e-01  6.253358e-01  -1.034972e-01  3.956215e-03  -6.855654e-01
2.329500e+00  -1.244820e-01  -6.661869e-01  6.281657e-01  -1.110550e-01  6.281033e-01  -1.110441e-01  -3.099111e-03  -6.814255e-01
2.330000e+00  -1.309208e-01  -6.606945e-01  6.308352e-01  -1.186996e-01  6.307726e-01  -1.186880e-01  -1.009188e-02  -6.771709e-01
2.330500e+00  -1.372691e-01  -6.550960e-01  6.334038e-01  -1.264399e-01  6.333408e-01  -1.264275e-01  -1.701924e-02  -6.728024e-01
2.331000e+00  -1.435241e-01  -6.493931e-01  6.358684e-01  -1.342744e-01  6.358052e-01  -1.342612e-01  -2.387835e-02  -6.683210e-01
2.331500e+00  -1.496830e-01  -6.435873e-01  6.382263e-01  -1.422015e-01  6.381629e-01  -1.421875e-01  -3.066637e-02  -6.637276e-01
2.332000e+00  -1.557430e-01  -6.376806e-01  6.404746e-01  -1.502197e-01  6.404110e-01  -1.502049e-01  -3.738048e-02  -6.590234e-01
2.332500e+00  -1.617015e-01  -6.316746e-01  6.426105e-01  -1.583272e-01  6.425467e-01  -1.583116e-01  -4.401785e-02  -6.542095e-01
2.333000e+00  -1.675557e-01  -6.255715e-01  6.446314e-01  -1.665222e-01  6.445674e-01  -1.665058e-01  -5.057568e-02  -6.492873e-01
2.333500e+00  -1.733030e-01  -6.193731e-01  6.465344e-01  -1.748028e-01  6.464702e-01  -1.747855e-01  -5.705118e-02  -6.442581e-01
2.334000e+00  -1.789408e-01  -6.130817e-01  6.483168e-01  -1.831669e-01  6.482524e-01  -1.831489e-01  -6.344161e-02  -6.391234e-01
2.334500e+00  -1.844665e-01  -6.066996e-01  6.499760e-01  -1.916126e-01  6.499114e-01  -1.915937e-01  -6.974421e-02  -6.338848e-01
2.335000e+00  -1.898778e-01  -6.002289e-01  6.515094e-01  -2.001376e-01  6.514446e-01  -2.001179e-01  -7.595629e-02  -6.285439e-01
2.335500e+00  -1.951720e-01  -5.936721e-01  6.529143e-01  -2.087396e-01  6.528494e-01  -2.087190e-01  -8.207517e-02  -6.231025e-01
2.336000e+00  -2.003469e-01  -5.870318e-01  6.541882e-01  -2.174162e-01  6.541232e-01  -2.173947e-01  -8.809821e-02  -6.175624e-01
2.336500e+00  -2.054000e-01  -5.803105e-01  6.553287e-01  -2.261650e-01  6.552636e-01  -2.261427e-01  -9.402283e-02  -6.119255e-01
2.337000e+00  -2.103292e-01  -5.735109e-01  6.563334e-01  -2.349834e-01  6.562682e-01  -2.349602e-01  -9.984647e-02  -6.061939e-01
2.337500e+00  -2.151323e-01  -5.666358e-01  6.571998e-01  -2.438687e-01  6.571345e-01  -2.438446e-01  -1.055666e-01  -6.003697e-01
2.338000e+00  -2.198071e-01  -5.596879e-01  6.579258e-01  -2.528183e-01  6.578604e-01  -2.527934e-01  -1.111809e-01  -5.944550e-01
2.338500e+00  -2.243516e-01  -5.526702e-01  6.585090e-01  -2.618293e-01  6.584435e-01  -2.618035e-01  -1.166868e-01  -5.884522e-01
2.339000e+00  -2.287639e-01  -5.455858e-01  6.589473e-01  -2.708988e-01  6.588818e-01  -2.708721e-01  -1.220820e-01  -5.823636e-01
2.339500e+00  -2.330421e-01  -5.384376e-01  6.592386e-01  -2.800239e-01  6.591731e-01  -2.799962e-01  -1.273643e-01  -5.761916e-01
2.340000e+00  -2.371844e-01  -5.312288e-01  6.593810e-01  -2.892015e-01  6.593155e-01  -2.891729e-01  -1.325315e-01  -5.699389e-01
2.340500e+00  -2.411892e-01  -5.239626e-01  6.593725e-01  -2.984284e-01  6.593070e-01  -2.983989e-01  -1.375814e-01  -5.636079e-01
2.341000e+00  -2.450547e-01  -5.166422e-01  6.592113e-01  -3.077014e-01  6.591457e-01  -3.076710e-01  -1.425119e-01  -5.572014e-01
2.341500e+00  -2.487796e-01  -5.092711e-01  6.588956e-01  -3.170173e-01  6.588301e-01  -3.169860e-01  -1.473211e-01  -5.507222e-01
2.342000e+00  -2.523625e-01  -5.018526e-01  6.584237e-01  -3.263728e-01  6.583583e-01  -3.263405e-01  -1.520071e-01  -5.441730e-01
2.342500e+00  -2.558019e-01  -4.943902e-01  6.577942e-01  -3.357644e-01  6.577289e-01  -3.357312e-01  -1.565680e-01  -5.375568e-01
2.343000e+00  -2.590968e-01  -4.868873e-01  6.570056e-01  -3.451886e-01  6.569403e-01  -3.451545e-01  -1.610022e-01  -5.308765e-01
2.343500e+00  -2.622461e-01  -4.793474e-01  6.560565e-01  -3.546420e-01  6.559913e-01  -3.546070e-01  -1.653078e-01  -5.241352e-01
2.344000e+00  -2.652487e-01  -4.717743e-01  6.549456e-01  -3.641210e-01  6.548805e-01  -3.640850e-01  -1.694835e-01  -5.173359e-01
2.344500e+00  -2.681039e-01  -4.641714e-01  6.536718e-01  -3.736219e-01  6.536068e-01  -3.735850e-01  -1.735277e-01  -5.104817e-01
2.345000e+00  -2.708109e-01  -4.565425e-01  6.522340e-01  -3.831411e-01  6.521692e-01  -3.831032e-01  -1.774390e-01  -5.035760e-01
2.345500e+00  -2.733690e-01  -4.488913e-01  6.506313e-01  -3.926749e-01  6.505667e-01  -3.926361e-01  -1.812162e-01  -4.966218e-01
2.346000e+00  -2.757777e-01  -4.412214e-01  6.488630e-01  -4.022195e-01  6.487984e-01  -4.021797e-01  -1.848582e-01  -4.896226e-01
2.346500e+00  -2.780367e-01  -4.335366e-01  6.469281e-01  -4.117712e-01  6.468638e-01  -4.117304e-01  -1.883637e-01  -4.825816e-01
2.347000e+00  -2.801456e-01  -4.258406e-01  6.448263e-01  -4.213261e-01  6.447622e-01  -4.212844e-01  -1.917320e-01  -4.755021e-01
2.347500e+00  -2.821043e-01  -4.181373e-01  6.425569e-01  -4.308804e-01  6.424930e-01  -4.308377e-01  -1.949620e-01  -4.683877e-01
2.348000e+00  -2.839127e-01  -4.104303e-01  6.401196e-01  -4.404303e-01  6.400560e-01  -4.403867e-01  -1.980532e-01  -4.612417e-01
2.348500e+00  -2.855710e-01  -4.027235e-01  6.375142e-01  -4.499718e-01  6.374508e-01  -4.499273e-01  -2.010048e-01  -4.540675e-01
2.349000e+00  -2.870792e-01  -3.950207e-01  6.347405e-01  -4.595012e-01  6.346774e-01  -4.594557e-01  -2.038162e-01  -4.468687e-01
2.349500e+00  -2.884379e-01  -3.873255e-01  6.317985e-01  -4.690144e-01  6.317357e-01  -4.689680e-01  -2.064872e-01  -4.396487e-01
2.350000e+00  -2.896473e-01  -3.796417e-01  6.286884e-01  -4.785078e-01  6.286259e-01  -4.784604e-01  -2.090173e-01  -4.324110e-01
2.350500e+00  -2.907081e-01  -3.719732e-01  6.254103e-01  -4.879772e-01  6.253481e-01  -4.879289e-01  -2.114064e-01  -4.251592e-01
2.351000e+00  -2.916209e-01  -3.643235e-01  6.219645e-01  -4.974190e-01  6.219027e-01  -4.973697e-01  -2.136544e-01  -4.178968e-01
2.351500e+00  -2.923866e-01  -3.566964e-01  6.183516e-01  -5.068292e-01  6.182901e-01  -5.067790e-01  -2.157612e-01  -4.106271e-01
2.352000e+00  -2.930060e-01  -3.490956e-01  6.145721e-01  -5.162039e-01  6.145110e-01  -5.161528e-01  -2.177272e-01  -4.033539e-01
2.352500e+00  -2.934802e-01  -3.415247e-01  6.106267e-01  -5.255394e-01  6.105660e-01  -5.254873e-01  -2.195524e-01  -3.960805e-01
2.353000e+00  -2.938104e-01  -3.339871e-01  6.065162e-01  -5.348318e-01  6.064559e-01  -5.347788e-01  -2.212372e-01  -3.888105e-01
2.353500e+00  -2.939977e-01  -3.264866e-01  6.022416e-01  -5.440774e-01  6.021817e-01  -5.440235e-01  -2.227822e-01  -3.815473e-01
2.354000e+00  -2.940436e-01  -3.190266e-01  5.978038e-01  -5.532724e-01  5.977444e-01  -5.532176e-01  -2.241879e-01  -3.742943e-01
2.354500e+00  -2.939495e-01  -3.116105e-01  5.932041e-01  -5.624131e-01  5.931451e-01  -5.623574e-01  -2.254550e-01  -3.670550e-01
2.355000e+00  -2.937171e-01  -3.042417e-01  5.884436e-01  -5.714960e-01  5.883851e-01  -5.714394e-01  -2.265842e-01  -3.598327e-01
2.355500e+00  -2.933480e-01  -2.969236e-01  5.835238e-01  -5.805172e-01  5.834657e-01  -5.804597e-01  -2.275765e-01  -3.526309e-01
2.356000e+00  -2.928440e-01  -2.896594e-01  5.784460e-01  -5.894734e-01  5.783884e-01  -5.894150e-01  -2.284329e-01  -3.454527e-01
2.356500e+00  -2.922070e-01  -2.824522e-01  5.732119e-01  -5.983610e-01  5.731549e-01  -5.983017e-01  -2.291544e-01  -3.383015e-01
2.357000e+00  -2.914389e-01  -2.753053e-01  5.678232e-01  -6.071766e-01  5.677667e-01  -6.071164e-01  -2.297424e-01  -3.311805e-01
2.357500e+00  -2.905419e-01  -2.682216e-01  5.622816e-01  -6.159167e-01  5.622256e-01  -6.158556e-01  -2.301979e-01  -3.240928e-01
2.358000e+00  -2.895181e-01  -2.612041e-01  5.565889e-01  -6.245780e-01  5.565335e-01  -6.245161e-01  -2.305226e-01  -3.170416e-01
2.358500e+00  -2.883698e-01  -2.542558e-01  5.507472e-01  -6.331573e-01  5.506924e-01  -6.330946e-01  -2.307178e-01  -3.100299e-01
2.359000e+00  -2.870992e-01  -2.473793e-01  5.447584e-01  -6.416515e-01  5.447042e-01  -6.415879e-01  -2.307850e-01  -3.030608e-01
2.359500e+00  -2.857088e-01  -2.405775e-01  5.386248e-01  -6.500573e-01  5.385712e-01  -6.499929e-01  -2.307261e-01  -2.961371e-01
2.360000e+00  -2.842010e-01  -2.338530e-01  5.323484e-01  -6.583718e-01  5.322954e-01  -6.583066e-01  -2.305426e-01  -2.892618e-01
2.360500e+00  -2.825785e-01  -2.272083e-01  5.259316e-01  -6.665920e-01  5.258793e-01  -6.665260e-01  -2.302365e-01  -2.824376e-01
2.361000e+00  -2.808438e-01  -2.206458e-01  5.193768e-01  -6.747151e-01  5.193251e-01  -6.746482e-01  -2.298096e-01  -2.756672e-01
2.361500e+00  -2.789996e-01  -2.141679e-01  5.126864e-01  -6.827382e-01  5.126354e-01  -6.826706e-01  -2.292639e-01  -2.689534e-01
2.362000e+00  -2.770486e-01  -2.077768e-01  5.058629e-01  -6.906587e-01  5.058126e-01  -6.905903e-01  -2.286015e-01  -2.622986e-01
2.362500e+00  -2.749937e-01  -2.014748e-01  4.989089e-01  -6.984740e-01  4.988592e-01  -6.984047e-01  -2.278244e-01  -2.557055e-01
2.363000e+00  -2.728376e-01  -1.952638e-01  4.918269e-01  -7.061814e-01  4.917779e-01  -7.061114e-01  -2.269348e-01  -2.491763e-01
2.363500e+00  -2.705832e-01  -1.891459e-01  4.846198e-01  -7.137787e-01  4.845715e-01  -7.137079e-01  -2.259350e-01  -2.427135e-01
2.364000e+00  -2.682335e-01  -1.831228e-01  4.772901e-01  -7.212634e-01  4.772426e-01  -7.211919e-01  -2.248273e-01  -2.363193e-01
2.364500e+00  -2.657915e-01  -1.771963e-01  4.698407e-01  -7.286333e-01  4.697939e-01  -7.285611e-01  -2.236139e-01  -2.299959e-01
2.365000e+00  -2.632601e-01  -1.713681e-01  4.622745e-01  -7.358863e-01  4.622285e-01  -7.358134e-01  -2.222973e-01  -2.237453e-01
2.365500e+00  -2.606424e-01  -1.656396e-01  4.545943e-01  -7.430203e-01  4.545490e-01  -7.429466e-01  -2.208800e-01  -2.175696e-01
2.366000e+00  -2.579413e-01  -1.600125e-01  4.468030e-01  -7.500333e-01  4.467585e-01  -7.499590e-01  -2.193644e-01  -2.114706e-01
2.366500e+00  -2.551601e-01  -1.544879e-01  4.389035e-01  -7.569235e-01  4.388598e-01  -7.568485e-01  -2.177530e-01  -2.054502e-01
2.367000e+00  -2.523017e-01  -1.490671e-01  4.308989e-01  -7.636891e-01  4.308560e-01  -7.636134e-01  -2.160485e-01  -1.995101e-01
2.367500e+00  -2.493693e-01  -1.437513e-01  4.227921e-01  -7.703285e-01  4.227500e-01  -7.702521e-01  -2.142533e-01  -1.936519e-01
2.368000e+00  -2.463660e-01  -1.385415e-01  4.145862e-01  -7.768400e-01  4.145448e-01  -7.767630e-01  -2.123701e-01  -1.878772e-01
2.368500e+00  -2.432949e-01  -1.334386e-01  4.062841e-01  -7.832222e-01  4.062436e-01  -7.831445e-01  -2.104015e-01  -1.821874e-01
2.369000e+00  -2.401592e-01  -1.284434e-01  3.978890e-01  -7.894737e-01  3.978494e-01  -7.893954e-01  -2.083502e-01  -1.765839e-01
2.369500e+00  -2.369619e-01  -1.235567e-01  3.894039e-01  -7.955932e-01  3.893651e-01  -7.955143e-01  -2.062189e-01  -1.710680e-01
2.370000e+00  -2.337062e-01  -1.187791e-01  3.808319e-01  -8.015796e-01  3.807940e-01  -8.015001e-01  -2.040103e-01  -1.656408e-01
2.370500e+00  -2.303951e-01  -1.141110e-01  3.721761e-01  -8.074316e-01  3.721390e-01  -8.073515e-01  -2.017271e-01  -1.603035e-01
2.371000e+00  -2.270318e-01  -1.095531e-01  3.634395e-01  -8.131484e-01  3.634033e-01  -8.130677e-01  -1.993719e-01  -1.550571e-01
2.371500e+00  -2.236193e-01  -1.051055e-01  3.546253e-01  -8.187290e-01  3.545899e-01  -8.186478e-01  -1.969475e-01  -1.499024e-01
2.372000e+00  -2.201608e-01  -1.007686e-01  3.457364e-01  -8.241725e-01  3.457019e-01  -8.240908e-01  -1.944567e-01  -1.448404e-01
2.372500e+00  -2.166592e-01  -9.654249e-02  3.367760e-01  -8.294783e-01  3.367424e-01  -8.293960e-01  -1.919021e-01  -1.398717e-01
2.373000e+00  -2.131175e-01  -9.242723e-02  3.277471e-01  -8.346457e-01  3.277144e-01  -8.345629e-01  -1.892863e-01  -1.349970e-01
2.373500e+00  -2.095388e-01  -8.842281e-02  3.186528e-01  -8.396741e-01  3.186210e-01  -8.395908e-01  -1.866123e-01  -1.302169e-01
2.374000e+00  -2.059260e-01  -8.452913e-02  3.094961e-01  -8.445631e-01  3.094652e-01  -8.444793e-01  -1.838825e-01  -1.255320e-01
2.374500e+00  -2.022820e-01  -8.074600e-02  3.002799e-01  -8.493122e-01  3.002499e-01  -8.492279e-01  -1.810998e-01  -1.209425e-01
2.375000e+00  -1.986097e-01  -7.707315e-02  2.910074e-01  -8.539211e-01  2.909783e-01  -8.538364e-01  -1.782667e-01  -1.164489e-01
2.375500e+00  -1.949120e-01  -7.351022e-02  2.816813e-01  -8.583897e-01  2.816532e-01  -8.583045e-01  -1.753859e-01  -1.120514e-01
2.376000e+00  -1.911917e-01  -7.005679e-02  2.723047e-01  -8.627177e-01  2.722775e-01  -8.626321e-01  -1.724600e-01  -1.077501e-01
2.376500e+00  -1.874515e-01  -6.671236e-02  2.628805e-01  -8.669051e-01  2.628542e-01  -8.668191e-01  -1.694917e-01  -1.035452e-01
2.377000e+00  -1.836942e-01  -6.347635e-02  2.534115e-01  -8.709518e-01  2.533862e-01  -8.708654e-01  -1.664834e-01  -9.943678e-02
2.377500e+00  -1.799225e-01  -6.034813e-02  2.439006e-01  -8.748580e-01  2.438762e-01  -8.747712e-01  -1.634378e-01  -9.542471e-02
2.378000e+00  -1.761390e-01  -5.732698e-02  2.343506e-01  -8.786237e-01  2.343272e-01  -8.785365e-01  -1.603573e-01  -9.150891e-02
2.378500e+00  -1.723463e-01  -5.441212e-02  2.247643e-01  -8.822491e-01  2.247418e-01  -8.821616e-01  -1.572445e-01  -8.768920e-02
2.379000e+00  -1.685469e-01  -5.160272e-02  2.151443e-01  -8.857346e-01  2.151228e-01  -8.856467e-01  -1.541018e-01  -8.396535e-02
2.379500e+00  -1.647433e-01  -4.889789e-02  2.054935e-01  -8.890804e-01  2.054729e-01  -8.889921e-01  -1.509315e-01  -8.033706e-02
2.380000e+00  -1.609380e-01  -4.629666e-02  1.958144e-01  -8.922869e-01  1.957947e-01  -8.921983e-01  -1.477362e-01  -7.680395e-02
2.380500e+00  -1.571333e-01  -4.379803e-02  1.861096e-01  -8.953545e-01  1.860909e-01  -8.952657e-01  -1.445181e-01  -7.336560e-02
2.381000e+00  -1.533316e-01  -4.140094e-02  1.763817e-01  -8.982839e-01  1.763640e-01  -8.981947e-01  -1.412796e-01  -7.002154e-02
2.381500e+00  -1.495351e-01  -3.910428e-02  1.666334e-01  -9.010754e-01  1.666166e-01  -9.009860e-01  -1.380228e-01  -6.677122e-02
2.382000e+00  -1.457461e-01  -3.690688e-02  1.568669e-01  -9.037298e-01  1.568511e-01  -9.036401e-01  -1.347501e-01  -6.361407e-02
2.382500e+00  -1.419667e-01  -3.480754e-02  1.470848e-01  -9.062476e-01  1.470700e-01  -9.061576e-01  -1.314636e-01  -6.054943e-02
2.383000e+00  -1.381990e-01  -3.280502e-02  1.372895e-01  -9.086296e-01  1.372757e-01  -9.085394e-01  -1.281655e-01  -5.757662e-02
2.383500e+00  -1.344451e-01  -3.089802e-02  1.274832e-01  -9.108765e-01  1.274704e-01  -9.107861e-01  -1.248578e-01  -5.469490e-02
2.384000e+00  -1.307070e-01  -2.908523e-02  1.176684e-01  -9.129891e-01  1.176565e-01  -9.128985e-01  -1.215426e-01  -5.190349e-02
2.384500e+00  -1.269866e-01  -2.736528e-02  1.078472e-01  -9.149682e-01  1.078363e-01  -9.148774e-01  -1.182219e-01  -4.920158e-02
2.385000e+00  -1.232857e-01  -2.573678e-02  9.802188e-02  -9.168147e-01  9.801196e-02  -9.167237e-01  -1.148977e-01  -4.658829e-02
2.385500e+00  -1.196062e-01  -2.419830e-02  8.819453e-02  -9.185296e-01  8.818558e-02  -9.184384e-01  -1.115719e-01  -4.406273e-02
2.386000e+00  -1.159498e-01  -2.274840e-02  7.836728e-02  -9.201136e-01  7.835930e-02  -9.200223e-01  -1.082464e-01  -4.162395e-02
2.386500e+00  -1.123183e-01  -2.138559e-02  6.854218e-02  -9.215678e-01  6.853518e-02  -9.214764e-01  -1.049229e-01  -3.927097e-02
2.387000e+00  -1.087133e-01  -2.010836e-02  5.872123e-02  -9.228933e-01  5.871520e-02  -9.228017e-01  -1.016032e-01  -3.700281e-02
2.387500e+00  -1.051363e-01  -1.891519e-02  4.890639e-02  -9.240909e-01  4.890134e-02  -9.239992e-01  -9.828910e-02  -3.481841e-02
2.388000e+00  -1.015889e-01  -1.780454e-02  3.909957e-02  -9.251619e-01  3.909549e-02  -9.250700e-01  -9.498224e-02  -3.271671e-02
2.388500e+00  -9.807251e-02  -1.677483e-02  2.930262e-02  -9.261072e-01  2.929951e-02  -9.260152e-01  -9.168426e-02  -3.069662e-02
2.389000e+00  -9.458860e-02  -1.582449e-02  1.951736e-02  -9.269279e-01  1.951522e-02  -9.268359e-01  -8.839674e-02  -2.875701e-02
2.389500e+00  -9.113851e-02  -1.495191e-02  9.745542e-03  -9.276252e-01  9.744377e-03  -9.275331e-01  -8.512120e-02  -2.689675e-02
2.390000e+00  -8.772352e-02  -1.415549e-02  -1.111327e-05  -9.282002e-01  -1.130990e-05  -9.281081e-01  -8.185914e-02  -2.511467e-02
2.390500e+00  -8.434488e-02  -1.343362e-02  -9.750942e-03  -9.286541e-01  -9.750172e-03  -9.285619e-01  -7.861199e-02  -2.340959e-02
2.391000e+00  -8.100378e-02  -1.278464e-02  -1.947232e-02  -9.289880e-01  -1.947059e-02  -9.288958e-01  -7.538114e-02  -2.178030e-02
2.391500e+00  -7.770135e-02  -1.220694e-02  -2.917369e-02  -9.292032e-01  -2.917099e-02  -9.291109e-01  -7.216795e-02  -2.022559e-02
2.392000e+00  -7.443867e-02  -1.169887e-02  -3.885351e-02  -9.293008e-01  -3.884985e-02  -9.292085e-01  -6.897370e-02  -1.874422e-02
2.392500e+00  -7.121677e-02  -1.125878e-02  -4.851029e-02  -9.292820e-01  -4.850568e-02  -9.291897e-01  -6.579965e-02  -1.733493e-02
2.393000e+00  -6.803662e-02  -1.088501e-02  -5.814262e-02  -9.291480e-01  -5.813705e-02  -9.290558e-01  -6.264702e-02  -1.599648e-02
2.393500e+00  -6.489915e-02  -1.057592e-02  -6.774909e-02  -9.289002e-01  -6.774256e-02  -9.288080e-01  -5.951695e-02  -1.472758e-02
2.394000e+00  -6.180523e-02  -1.032985e-02  -7.732835e-02  -9.285397e-01  -7.732087e-02  -9.284475e-01  -5.641057e-02  -1.352696e-02
2.394500e+00  -5.875568e-02  -1.014515e-02  -8.687910e-02  -9.280677e-01  -8.687068e-02  -9.279755e-01  -5.332894e-02  -1.239333e-02
2.395000e+00  -5.575128e-02  -1.002017e-02  -9.640008e-02  -9.274855e-01  -9.639071e-02  -9.273934e-01  -5.027311e-02  -1.132538e-02
2.395500e+00  -5.279276e-02  -9.953261e-03  -1.058901e-01  -9.267944e-01  -1.058797e-01  -9.267024e-01  -4.724405e-02  -1.032182e-02
2.396000e+00  -4.988080e-02  -9.942788e-03  -1.153479e-01  -9.259956e-01  -1.153366e-01  -9.259037e-01  -4.424270e-02  -9.381336e-03
2.396500e+00  -4.701602e-02  -9.987114e-03  -1.247723e-01  -9.250904e-01  -1.247602e-01  -9.249985e-01  -4.126998e-02  -8.502625e-03
2.397000e+00  -4.419904e-02  -1.008461e-02  -1.341624e-01  -9.240800e-01  -1.341493e-01  -9.239882e-01  -3.832673e-02  -7.684371e-03
2.397500e+00  -4.143037e-02  -1.023365e-02  -1.435170e-01  -9.229656e-01  -1.435029e-01  -9.228740e-01  -3.541377e-02  -6.925262e-03
2.398000e+00  -3.871054e-02  -1.043263e-02  -1.528350e-01  -9.217486e-01  -1.528200e-01  -9.216571e-01  -3.253190e-02  -6.223983e-03
2.398500e+00  -3.604000e-02  -1.067995e-02  -1.621156e-01  -9.204301e-01  -1.620997e-01  -9.203387e-01  -2.968183e-02  -5.579223e-03
2.399000e+00  -3.341917e-02  -1.097401e-02  -1.713577e-01  -9.190115e-01  -1.713409e-01  -9.189202e-01  -2.686429e-02  -4.989671e-03
2.399500e+00  -3.084842e-02  -1.131323e-02  -1.805604e-01  -9.174939e-01  -1.805427e-01  -9.174027e-01  -2.407993e-02  -4.454020e-03
2.400000e+00  -2.832810e-02  -1.169605e-02  -1.897228e-01  -9.158785e-01  -1.897042e-01  -9.157876e-01  -2.132937e-02  -3.970965e-03
2.400500e+00  -2.585850e-02  -1.212092e-02  -1.988442e-01  -9.141667e-01  -1.988246e-01  -9.140759e-01  -1.861322e-02  -3.539207e-03
2.401000e+00  -2.343990e-02  -1.258628e-02  -2.079236e-01  -9.123596e-01  -2.079032e-01  -9.122690e-01  -1.593201e-02  -3.157452e-03
2.401500e+00  -2.107251e-02  -1.309062e-02  -2.169603e-01  -9.104585e-01  -2.169390e-01  -9.103681e-01  -1.328628e-02  -2.824411e-03
2.402000e+00  -1.875654e-02  -1.363242e-02  -2.259535e-01  -9.084645e-01  -2.259313e-01  -9.083743e-01  -1.067651e-02  -2.538802e-03
2.402500e+00  -1.649212e-02  -1.421019e-02  -2.349025e-01  -9.063789e-01  -2.348794e-01  -9.062889e-01  -8.103142e-03  -2.299353e-03
2.403000e+00  -1.427939e-02  -1.482244e-02  -2.438067e-01  -9.042029e-01  -2.437826e-01  -9.041131e-01  -5.566608e-03  -2.104796e-03
2.403500e+00  -1.211845e-02  -1.546771e-02  -2.526652e-01  -9.019376e-01  -2.526403e-01  -9.018480e-01  -3.067292e-03  -1.953875e-03
2.404000e+00  -1.000933e-02  -1.614456e-02  -2.614776e-01  -8.995841e-01  -2.614518e-01  -8.994948e-01  -6.055496e-04  -1.845340e-03
2.404500e+00  -7.952083e-03  -1.685156e-02  -2.702431e-01  -8.971438e-01  -2.702164e-01  -8.970547e-01  1.818292e-03  -1.777955e-03
2.405000e+00  -5.946695e-03  -1.758729e-02  -2.789612e-01  -8.946176e-01  -2.789337e-01  -8.945288e-01  4.203937e-03  -1.750489e-03
2.405500e+00  -3.993137e-03  -1.835036e-02  -2.876313e-01  -8.920069e-01  -2.876030e-01  -8.919182e-01  6.551117e-03  -1.761728e-03
2.406000e+00  -2.091349e-03  -1.913939e-02  -2.962530e-01  -8.893126e-01  -2.962237e-01  -8.892242e-01  8.859593e-03  -1.810463e-03
2.406500e+00  -2.412435e-04  -1.995303e-02  -3.048256e-01  -8.865359e-01  -3.047955e-01  -8.864478e-01  1.112915e-02  -1.895500e-03
2.407000e+00  1.557293e-03  -2.078995e-02  -3.133486e-01  -8.836779e-01  -3.133177e-01  -8.835901e-01  1.335961e-02  -2.015658e-03
2.407500e+00  3.304399e-03  -2.164882e-02  -3.218217e-01  -8.807398e-01  -3.217899e-01  -8.806523e-01  1.555080e-02  -2.169765e-03
2.408000e+00  5.000239e-03  -2.252834e-02  -3.302443e-01  -8.777225e-01  -3.302117e-01  -8.776353e-01  1.770260e-02  -2.356665e-03
2.408500e+00  6.645000e-03  -2.342723e-02  -3.386161e-01  -8.746272e-01  -3.385827e-01  -8.745403e-01  1.981489e-02  -2.575212e-03
2.409000e+00  8.238895e-03  -2.434424e-02  -3.469366e-01  -8.714550e-01  -3.469023e-01  -8.713684e-01  2.188759e-02  -2.824276e-03
2.409500e+00  9.782156e-03  -2.527813e-02  -3.552054e-01  -8.682067e-01  -3.551703e-01  -8.681205e-01  2.392064e-02  -3.102739e-03
2.410000e+00  1.127504e-02  -2.622767e-02  -3.634221e-01  -8.648836e-01  -3.633862e-01  -8.647977e-01  2.591399e-02  -3.409497e-03
2.410500e+00  1.271782e-02  -2.719167e-02  -3.715864e-01  -8.614867e-01  -3.715497e-01  -8.614011e-01  2.786763e-02  -3.743461e-03
2.411000e+00  1.411079e-02  -2.816895e-02  -3.796981e-01  -8.580168e-01  -3.796605e-01  -8.579315e-01  2.978155e-02  -4.103555e-03
2.411500e+00  1.545427e-02  -2.915835e-02  -3.877566e-01  -8.544751e-01  -3.877183e-01  -8.543902e-01  3.165579e-02  -4.488718e-03
2.412000e+00  1.674860e-02  -3.015874e-02  -3.957618e-01  -8.508624e-01  -3.957227e-01  -8.507779e-01  3.349038e-02  -4.897904e-03
2.412500e+00  1.799412e-02  -3.116899e-02  -4.037133e-01  -8.471799e-01  -4.036734e-01  -8.470957e-01  3.528539e-02  -5.330081e-03
2.413000e+00  1.919121e-02  -3.218800e-02  -4.116109e-01  -8.434284e-01  -4.115702e-01  -8.433446e-01  3.704090e-02  -5.784232e-03
2.413500e+00  2.034024e-02  -3.321471e-02  -4.194543e-01  -8.396088e-01  -4.194128e-01  -8.395254e-01  3.875700e-02  -6.259356e-03
2.414000e+00  2.144163e-02  -3.424806e-02  -4.272432e-01  -8.357222e-01  -4.272010e-01  -8.356391e-01  4.043382e-02  -6.754465e-03
2.414500e+00  2.249578e-02  -3.528700e-02  -4.349774e-01  -8.317694e-01  -4.349344e-01  -8.316867e-01  4.207149e-02  -7.268589e-03
2.415000e+00  2.350314e-02  -3.633053e-02  -4.426568e-01  -8.277513e-01  -4.426130e-01  -8.276690e-01  4.367014e-02  -7.800770e-03
2.415500e+00  2.446415e-02  -3.737764e-02  -4.502810e-01  -8.236688e-01  -4.502365e-01  -8.235870e-01  4.522996e-02  -8.350068e-03
2.416000e+00  2.537926e-02  -3.842737e-02  -4.578499e-01  -8.195229e-01  -4.578046e-01  -8.194414e-01  4.675113e-02  -8.915557e-03
2.416500e+00  2.624895e-02  -3.947876e-02  -4.653633e-01  -8.153143e-01  -4.653173e-01  -8.152332e-01  4.823382e-02  -9.496327e-03
2.417000e+00  2.707370e-02  -4.053088e-02  -4.728210e-01  -8.110439e-01  -4.727742e-01  -8.109633e-01  4.967826e-02  -1.009148e-02
2.417500e+00  2.785401e-02  -4.158280e-02  -4.802228e-01  -8.067126e-01  -4.801753e-01  -8.066324e-01  5.108467e-02  -1.070014e-02
2.418000e+00  2.859039e-02  -4.263364e-02  -4.875685e-01  -8.023212e-01  -4.875203e-01  -8.022414e-01  5.245329e-02  -1.132145e-02
2.418500e+00  2.928336e-02  -4.368253e-02  -4.948581e-01  -7.978705e-01  -4.948092e-01  -7.977911e-01  5.378435e-02  -1.195454e-02
2.419000e+00  2.993344e-02  -4.472860e-02  -5.020914e-01  -7.933613e-01  -5.020417e-01  -7.932824e-01  5.507813e-02  -1.259860e-02
2.419500e+00  3.054117e-02  -4.577102e-02  -5.092682e-01  -7.887944e-01  -5.092178e-01  -7.887160e-01  5.633489e-02  -1.325279e-02
2.420000e+00  3.110710e-02  -4.680897e-02  -5.163884e-01  -7.841706e-01  -5.163373e-01  -7.840927e-01  5.755492e-02  -1.391633e-02
2.420500e+00  3.163178e-02  -4.784166e-02  -5.234518e-01  -7.794908e-01  -5.234000e-01  -7.794133e-01  5.873850e-02  -1.458841e-02
2.421000e+00  3.211579e-02  -4.886832e-02  -5.304585e-01  -7.747555e-01  -5.304060e-01  -7.746785e-01  5.988596e-02  -1.526828e-02
2.421500e+00  3.255968e-02  -4.988817e-02  -5.374081e-01  -7.699656e-01  -5.373549e-01  -7.698891e-01  6.099759e-02  -1.595516e-02
2.422000e+00  3.296405e-02  -5.090049e-02  -5.443007e-01  -7.651219e-01  -5.442468e-01  -7.650458e-01  6.207373e-02  -1.664832e-02
2.422500e+00  3.332948e-02  -5.190455e-02  -5.511362e-01  -7.602250e-01  -5.510816e-01  -7.601494e-01  6.311471e-02  -1.734703e-02
2.423000e+00  3.365656e-02  -5.289965e-02  -5.579143e-01  -7.552756e-01  -5.578591e-01  -7.552005e-01  6.412086e-02  -1.805058e-02
2.423500e+00  3.394589e-02  -5.388511e-02  -5.646352e-01  -7.502746e-01  -5.645793e-01  -7.502000e-01  6.509254e-02  -1.875827e-02
2.424000e+00  3.419807e-02  -5.486025e-02  -5.712986e-01  -7.452225e-01  -5.712420e-01  -7.451484e-01  6.603011e-02  -1.946942e-02
2.424500e+00  3.441372e-02  -5.582444e-02  -5.779045e-01  -7.401201e-01  -5.778473e-01  -7.400465e-01  6.693392e-02  -2.018336e-02
2.425000e+00  3.459346e-02  -5.677705e-02  -5.844528e-01  -7.349680e-01  -5.843949e-01  -7.348950e-01  6.780436e-02  -2.089943e-02
2.425500e+00  3.473789e-02  -5.771745e-02  -5.909435e-01  -7.297670e-01  -5.908849e-01  -7.296944e-01  6.864181e-02  -2.161700e-02
2.426000e+00  3.484766e-02  -5.864506e-02  -5.973764e-01  -7.245176e-01  -5.973172e-01  -7.244455e-01  6.944664e-02  -2.233544e-02
2.426500e+00  3.492337e-02  -5.955931e-02  -6.037515e-01  -7.192205e-01  -6.036917e-01  -7.191490e-01  7.021925e-02  -2.305413e-02
2.427000e+00  3.496568e-02  -6.045962e-02  -6.100688e-01  -7.138764e-01  -6.100083e-01  -7.138054e-01  7.096004e-02  -2.377250e-02
2.427500e+00  3.497521e-02  -6.134547e-02  -6.163281e-01  -7.084859e-01  -6.162670e-01  -7.084155e-01  7.166941e-02  -2.448994e-02
2.428000e+00  3.495260e-02  -6.221632e-02  -6.225294e-01  -7.030497e-01  -6.224678e-01  -7.029797e-01  7.234777e-02  -2.520589e-02
2.428500e+00  3.489849e-02  -6.307166e-02  -6.286727e-01  -6.975682e-01  -6.286105e-01  -6.974988e-01  7.299553e-02  -2.591980e-02
2.429000e+00  3.481354e-02  -6.391101e-02  -6.347580e-01  -6.920422e-01  -6.346951e-01  -6.919734e-01  7.361311e-02  -2.663112e-02
2.429500e+00  3.469837e-02  -6.473388e-02  -6.407850e-01  -6.864723e-01  -6.407216e-01  -6.864040e-01  7.420095e-02  -2.733933e-02
2.430000e+00  3.455365e-02  -6.553982e-02  -6.467539e-01  -6.808590e-01  -6.466898e-01  -6.807912e-01  7.475945e-02  -2.804391e-02
2.430500e+00  3.438001e-02  -6.632839e-02  -6.526645e-01  -6.752029e-01  -6.525999e-01  -6.751357e-01  7.528905e-02  -2.874436e-02
2.431000e+00  3.417812e-02  -6.709915e-02  -6.585169e-01  -6.695046e-01  -6.584516e-01  -6.694380e-01  7.579019e-02  -2.944020e-02
2.431500e+00  3.394862e-02  -6.785169e-02  -6.643109e-01  -6.637647e-01  -6.642451e-01  -6.636986e-01  7.626331e-02  -3.013094e-02
2.432000e+00  3.369217e-02  -6.858563e-02  -6.700465e-01  -6.579837e-01  -6.699801e-01  -6.579183e-01  7.670884e-02  -3.081613e-02
2.432500e+00  3.340942e-02  -6.930056e-02  -6.757236e-01  -6.521623e-01  -6.756567e-01  -6.520974e-01  7.712722e-02  -3.149532e-02
2.433000e+00  3.310102e-02  -6.999614e-02  -6.813423e-01  -6.463008e-01  -6.812748e-01  -6.462365e-01  7.751891e-02  -3.216806e-02
2.433500e+00  3.276763e-02  -7.067201e-02  -6.869025e-01  -6.404000e-01  -6.868345e-01  -6.403363e-01  7.788436e-02  -3.283394e-02
2.434000e+00  3.240990e-02  -7.132783e-02  -6.924041e-01  -6.344604e-01  -6.923355e-01  -6.343972e-01  7.822401e-02  -3.349254e-02
2.434500e+00  3.202849e-02  -7.196328e-02  -6.978472e-01  -6.284823e-01  -6.977780e-01  -6.284198e-01  7.853832e-02  -3.414347e-02
2.435000e+00  3.162405e-02  -7.257806e-02  -7.032315e-01  -6.224665e-01  -7.031619e-01  -6.224046e-01  7.882773e-02  -3.478633e-02
2.435500e+00  3.119722e-02  -7.317186e-02  -7.085572e-01  -6.164134e-01  -7.084870e-01  -6.163521e-01  7.909272e-02  -3.542075e-02
2.436000e+00  3.074867e-02  -7.374442e-02  -7.138242e-01  -6.103236e-01  -7.137535e-01  -6.102629e-01  7.933373e-02  -3.604637e-02
2.436500e+00  3.027905e-02  -7.429546e-02  -7.190324e-01  -6.041975e-01  -7.189611e-01  -6.041374e-01  7.955122e-02  -3.666283e-02
2.437000e+00  2.978900e-02  -7.482473e-02  -7.241818e-01  -5.980357e-01  -7.241100e-01  -5.979761e-01  7.974566e-02  -3.726980e-02
2.437500e+00  2.927917e-02  -7.533201e-02  -7.292723e-01  -5.918386e-01  -7.292000e-01  -5.917797e-01  7.991750e-02  -3.786694e-02
2.438000e+00  2.875021e-02  -7.581706e-02  -7.343039e-01  -5.856068e-01  -7.342312e-01  -5.855485e-01  8.006721e-02  -3.845395e-02
2.438500e+00  2.820276e-02  -7.627966e-02  -7.392767e-01  -5.793408e-01  -7.392034e-01  -5.792831e-01  8.019524e-02  -3.903050e-02
2.439000e+00  2.763746e-02  -7.671964e-02  -7.441904e-01  -5.730410e-01  -7.441166e-01  -5.729839e-01  8.030206e-02  -3.959631e-02
2.439500e+00  2.705497e-02  -7.713679e-02  -7.490451e-01  -5.667079e-01  -7.489709e-01  -5.666515e-01  8.038813e-02  -4.015109e-02
2.440000e+00  2.645590e-02  -7.753095e-02  -7.538408e-01  -5.603421e-01  -7.537661e-01  -5.602863e-01  8.045392e-02  -4.069457e-02
2.440500e+00  2.584091e-02  -7.790196e-02  -7.585773e-01  -5.539439e-01  -7.585021e-01  -5.538888e-01  8.049988e-02  -4.122649e-02
2.441000e+00  2.521062e-02  -7.824967e-02  -7.632548e-01  -5.475140e-01  -7.631791e-01  -5.474594e-01  8.052648e-02  -4.174660e-02
2.441500e+00  2.456566e-02  -7.857394e-02  -7.678730e-01  -5.410526e-01  -7.677969e-01  -5.409988e-01  8.053417e-02  -4.225464e-02
2.442000e+00  2.390666e-02  -7.887466e-02  -7.724320e-01  -5.345604e-01  -7.723554e-01  -5.345072e-01  8.052342e-02  -4.275040e-02
2.442500e+00  2.323425e-02  -7.915171e-02  -7.769317e-01  -5.280378e-01  -7.768547e-01  -5.279852e-01  8.049469e-02  -4.323364e-02
2.443000e+00  2.254905e-02  -7.940499e-02  -7.813722e-01  -5.214853e-01  -7.812947e-01  -5.214333e-01  8.044844e-02  -4.370417e-02
2.443500e+00  2.185168e-02  -7.963442e-02  -7.857532e-01  -5.149032e-01  -7.856753e-01  -5.148519e-01  8.038512e-02  -4.416178e-02
2.444000e+00  2.114274e-02  -7.983992e-02  -7.900749e-01  -5.082921e-01  -7.899965e-01  -5.082415e-01  8.030519e-02  -4.460627e-02
2.444500e+00  2.042286e-02  -8.002143e-02  -7.943371e-01  -5.016525e-01  -7.942583e-01  -5.016025e-01  8.020911e-02  -4.503746e-02
2.445000e+00  1.969263e-02  -8.017889e-02  -7.985398e-01  -4.949847e-01  -7.984606e-01  -4.949354e-01  8.009733e-02  -4.545520e-02
2.445500e+00  1.895267e-02  -8.031226e-02  -8.026830e-01  -4.882892e-01  -8.026034e-01  -4.882406e-01  7.997030e-02  -4.585930e-02
2.446000e+00  1.820358e-02  -8.042152e-02  -8.067666e-01  -4.815666e-01  -8.066866e-01  -4.815186e-01  7.982847e-02  -4.624962e-02
2.446500e+00  1.744594e-02  -8.050664e-02  -8.107905e-01  -4.748171e-01  -8.107101e-01  -4.747698e-01  7.967230e-02  -4.662601e-02
2.447000e+00  1.668035e-02  -8.056760e-02  -8.147548e-01  -4.680414e-01  -8.146740e-01  -4.679947e-01  7.950223e-02  -4.698835e-02
2.447500e+00  1.590741e-02  -8.060442e-02  -8.186593e-01  -4.612398e-01  -8.185782e-01  -4.611938e-01  7.931870e-02  -4.733650e-02
2.448000e+00  1.512768e-02  -8.061711e-02  -8.225041e-01  -4.544127e-01  -8.224225e-01  -4.543674e-01  7.912216e-02  -4.767035e-02
2.448500e+00  1.434175e-02  -8.060567e-02  -8.262891e-01  -4.475606e-01  -8.262071e-01  -4.475160e-01  7.891305e-02  -4.798978e-02
2.449000e+00  1.355020e-02  -8.057016e-02  -8.300141e-01  -4.406840e-01  -8.299318e-01  -4.406401e-01  7.869180e-02  -4.829471e-02
2.449500e+00  1.275359e-02  -8.051060e-02  -8.336793e-01  -4.337833e-01  -8.335966e-01  -4.337401e-01  7.845886e-02  -4.858504e-02
2.450000e+00  1.195249e-02  -8.042705e-02  -8.372845e-01  -4.268590e-01  -8.372015e-01  -4.268164e-01  7.821466e-02  -4.886068e-02
2.450500e+00  1.114745e-02  -8.031958e-02  -8.408297e-01  -4.199114e-01  -8.407463e-01  -4.198695e-01  7.795963e-02  -4.912157e-02
2.451000e+00  1.033904e-02  -8.018824e-02  -8.443149e-01  -4.129410e-01  -8.442311e-01  -4.128998e-01  7.769419e-02  -4.936763e-02
2.451500e+00  9.527800e-03  -8.003313e-02  -8.477399e-01  -4.059482e-01  -8.476558e-01  -4.059078e-01  7.741878e-02  -4.959881e-02
2.452000e+00  8.714275e-03  -7.985432e-02  -8.511048e-01  -3.989336e-01  -8.510204e-01  -3.988938e-01  7.713381e-02  -4.981506e-02
2.452500e+00  7.899003e-03  -7.965192e-02  -8.544095e-01  -3.918974e-01  -8.543247e-01  -3.918583e-01  7.683971e-02  -5.001634e-02
2.453000e+00  7.082520e-03  -7.942604e-02  -8.576539e-01  -3.848402e-01  -8.575688e-01  -3.848019e-01  7.653689e-02  -5.020262e-02
2.453500e+00  6.265354e-03  -7.917678e-02  -8.608380e-01  -3.777624e-01  -8.607526e-01  -3.777248e-01  7.622577e-02  -5.037385e-02
2.454000e+00  5.448026e-03  -7.890429e-02  -8.639618e-01  -3.706645e-01  -8.638761e-01  -3.706275e-01  7.590676e-02  -5.053004e-02
2.454500e+00  4.631055e-03  -7.860868e-02  -8.670252e-01  -3.635467e-01  -8.669392e-01  -3.635105e-01  7.558025e-02  -5.067117e-02
2.455000e+00  3.814951e-03  -7.829010e-02  -8.700282e-01  -3.564097e-01  -8.699419e-01  -3.563741e-01  7.524667e-02  -5.079722e-02
2.455500e+00  3.000219e-03  -7.794869e-02  -8.729707e-01  -3.492538e-01  -8.728841e-01  -3.492190e-01  7.490641e-02  -5.090821e-02
2.456000e+00  2.187361e-03  -7.758463e-02  -8.758526e-01  -3.420795e-01  -8.757658e-01  -3.420453e-01  7.455986e-02  -5.100415e-02
2.456500e+00  1.376868e-03  -7.719807e-02  -8.786740e-01  -3.348872e-01  -8.785869e-01  -3.348537e-01  7.420742e-02  -5.108505e-02
2.457000e+00  5.692286e-04  -7.678918e-02  -8.814348e-01  -3.276773e-01  -8.813474e-01  -3.276445e-01  7.384947e-02  -5.115093e-02
2.457500e+00  -2.350755e-04  -7.635815e-02  -8.841349e-01  -3.204502e-01  -8.840472e-01  -3.204182e-01  7.348641e-02  -5.120183e-02
2.458000e+00  -1.035569e-03  -7.590517e-02  -8.867743e-01  -3.132065e-01  -8.866864e-01  -3.131752e-01  7.311862e-02  -5.123779e-02
2.458500e+00  -1.831783e-03  -7.543043e-02  -8.893530e-01  -3.059465e-01  -8.892648e-01  -3.059159e-01  7.274647e-02  -5.125885e-02
2.459000e+00  -2.623256e-03  -7.493414e-02  -8.918709e-01  -2.986707e-01  -8.917824e-01  -2.986408e-01  7.237034e-02  -5.126505e-02
2.459500e+00  -3.409529e-03  -7.441651e-02  -8.943279e-01  -2.913795e-01  -8.942392e-01  -2.913504e-01  7.199060e-02  -5.125646e-02
2.460000e+00  -4.190155e-03  -7.387775e-02  -8.967241e-01  -2.840733e-01  -8.966352e-01  -2.840449e-01  7.160762e-02  -5.123313e-02
2.460500e+00  -4.964689e-03  -7.331810e-02  -8.990594e-01  -2.767526e-01  -8.989702e-01  -2.767250e-01  7.122175e-02  -5.119515e-02
2.461000e+00  -5.732695e-03  -7.273777e-02  -9.013338e-01  -2.694179e-01  -9.012444e-01  -2.693910e-01  7.083336e-02  -5.114258e-02
2.461500e+00  -6.493743e-03  -7.213702e-02  -9.035472e-01  -2.620695e-01  -9.034575e-01  -2.620433e-01  7.044280e-02  -5.107550e-02
2.462000e+00  -7.247410e-03  -7.151608e-02  -9.056996e-01  -2.547079e-01  -9.056097e-01  -2.546825e-01  7.005042e-02  -5.099400e-02
2.462500e+00  -7.993279e-03  -7.087521e-02  -9.077909e-01  -2.473336e-01  -9.077008e-01  -2.473089e-01  6.965656e-02  -5.089818e-02
2.463000e+00  -8.730940e-03  -7.021467e-02  -9.098212e-01  -2.399470e-01  -9.097309e-01  -2.399229e-01  6.926156e-02  -5.078813e-02
2.463500e+00  -9.459992e-03  -6.953471e-02  -9.117903e-01  -2.325484e-01  -9.116998e-01  -2.325252e-01  6.886577e-02  -5.066396e-02
2.464000e+00  -1.018004e-02  -6.883561e-02  -9.136984e-01  -2.251385e-01  -9.136077e-01  -2.251159e-01  6.846950e-02  -5.052577e-02
2.464500e+00  -1.089069e-02  -6.811764e-02  -9.155452e-01  -2.177175e-01  -9.154544e-01  -2.176957e-01  6.807310e-02  -5.037368e-02
2.465000e+00  -1.159156e-02  -6.738109e-02  -9.173309e-01  -2.102860e-01  -9.172399e-01  -2.102650e-01  6.767687e-02  -5.020781e-02
2.465500e+00  -1.228229e-02  -6.662624e-02  -9.190554e-01  -2.028445e-01  -9.189642e-01  -2.028241e-01  6.728115e-02  -5.002829e-02
2.466000e+00  -1.296249e-02  -6.585338e-02  -9.207187e-01  -1.953932e-01  -9.206273e-01  -1.953736e-01  6.688623e-02  -4.983524e-02
2.466500e+00  -1.363182e-02  -6.506282e-02  -9.223207e-01  -1.879327e-01  -9.222291e-01  -1.879139e-01  6.649244e-02  -4.962880e-02
2.467000e+00  -1.428992e-02  -6.425485e-02  -9.238614e-01  -1.804635e-01  -9.237697e-01  -1.804454e-01  6.610007e-02  -4.940911e-02
2.467500e+00  -1.493644e-02  -6.342978e-02  -9.253409e-01  -1.729860e-01  -9.252490e-01  -1.729686e-01  6.570942e-02  -4.917631e-02
2.468000e+00  -1.557105e-02  -6.258792e-02  -9.267590e-01  -1.655006e-01  -9.266671e-01  -1.654839e-01  6.532079e-02  -4.893056e-02
2.468500e+00  -1.619341e-02  -6.172960e-02  -9.281159e-01  -1.580077e-01  -9.280238e-01  -1.579918e-01  6.493446e-02  -4.867200e-02
2.469000e+00  -1.680321e-02  -6.085513e-02  -9.294114e-01  -1.505079e-01  -9.293192e-01  -1.504928e-01  6.455072e-02  -4.840080e-02
2.469500e+00  -1.740012e-02  -5.996484e-02  -9.306456e-01  -1.430016e-01  -9.305533e-01  -1.429872e-01  6.416985e-02  -4.811711e-02
2.470000e+00  -1.798384e-02  -5.905906e-02  -9.318185e-01  -1.354892e-01  -9.317260e-01  -1.354756e-01  6.379211e-02  -4.782110e-02
2.470500e+00  -1.855407e-02  -5.813813e-02  -9.329300e-01  -1.279712e-01  -9.328374e-01  -1.279583e-01  6.341779e-02  -4.751294e-02
2.471000e+00  -1.911051e-02  -5.720239e-02  -9.339803e-01  -1.204481e-01  -9.338876e-01  -1.204359e-01  6.304713e-02  -4.719281e-02
2.471500e+00  -1.965288e-02  -5.625218e-02  -9.349691e-01  -1.129202e-01  -9.348763e-01  -1.129088e-01  6.268041e-02  -4.686089e-02
2.472000e+00  -2.018090e-02  -5.528784e-02  -9.358967e-01  -1.053881e-01  -9.358038e-01  -1.053774e-01  6.231787e-02  -4.651735e-02
2.472500e+00  -2.069430e-02  -5.430973e-02  -9.367629e-01  -9.785215e-02  -9.366699e-01  -9.784224e-02  6.195976e-02  -4.616238e-02
2.473000e+00  -2.119283e-02  -5.331821e-02  -9.375678e-01  -9.031289e-02  -9.374748e-01  -9.030372e-02  6.160632e-02  -4.579618e-02
2.473500e+00  -2.167621e-02  -5.231362e-02  -9.383115e-01  -8.277074e-02  -9.382183e-01  -8.276232e-02  6.125779e-02  -4.541893e-02
2.474000e+00  -2.214422e-02  -5.129634e-02  -9.389938e-01  -7.522615e-02  -9.389006e-01  -7.521848e-02  6.091441e-02  -4.503082e-02
2.474500e+00  -2.259660e-02  -5.026673e-02  -9.396149e-01  -6.767960e-02  -9.395216e-01  -6.767268e-02  6.057639e-02  -4.463207e-02
2.475000e+00  -2.303314e-02  -4.922514e-02  -9.401748e-01  -6.013153e-02  -9.400814e-01  -6.012536e-02  6.024397e-02  -4.422287e-02
2.475500e+00  -2.345360e-02  -4.817197e-02  -9.406734e-01  -5.258241e-02  -9.405800e-01  -5.257699e-02  5.991734e-02  -4.380342e-02
2.476000e+00  -2.385776e-02  -4.710756e-02  -9.411108e-01  -4.503270e-02  -9.410174e-01  -4.502802e-02  5.959674e-02  -4.337394e-02
2.476500e+00  -2.424543e-02  -4.603232e-02  -9.414871e-01  -3.748285e-02  -9.413936e-01  -3.747892e-02  5.928235e-02  -4.293464e-02
2.477000e+00  -2.461641e-02  -4.494660e-02  -9.418022e-01  -2.993332e-02  -9.417087e-01  -2.993014e-02  5.897439e-02  -4.248573e-02
2.477500e+00  -2.497049e-02  -4.385080e-02  -9.420563e-01  -2.238458e-02  -9.419628e-01  -2.238215e-02  5.867304e-02  -4.202742e-02
2.478000e+00  -2.530750e-02  -4.274528e-02  -9.422493e-01  -1.483709e-02  -9.421558e-01  -1.483541e-02  5.837849e-02  -4.155994e-02
2.478500e+00  -2.562727e-02  -4.163045e-02  -9.423813e-01  -7.291301e-03  -9.422877e-01  -7.290374e-03  5.809093e-02  -4.108350e-02
2.479000e+00  -2.592962e-02  -4.050669e-02  -9.424523e-01  2.523137e-04  -9.423588e-01  2.524916e-04  5.781053e-02  -4.059834e-02
2.479500e+00  -2.621439e-02  -3.937438e-02  -9.424624e-01  7.793296e-03  -9.423689e-01  7.792725e-03  5.753746e-02  -4.010467e-02
2.480000e+00  -2.648143e-02  -3.823391e-02  -9.424117e-01  1.533118e-02  -9.423181e-01  1.532986e-02  5.727190e-02  -3.960274e-02
2.480500e+00  -2.673060e-02  -3.708569e-02  -9.423002e-01  2.286551e-02  -9.422066e-01  2.286345e-02  5.701400e-02  -3.909275e-02
2.481000e+00  -2.696177e-02  -3.593009e-02  -9.421279e-01  3.039582e-02  -9.420343e-01  3.039301e-02  5.676392e-02  -3.857496e-02
2.481500e+00  -2.717480e-02  -3.476752e-02  -9.418949e-01  3.792165e-02  -9.418014e-01  3.791809e-02  5.652180e-02  -3.804958e-02
2.482000e+00  -2.736957e-02  -3.359836e-02  -9.416013e-01  4.544253e-02  -9.415078e-01  4.543823e-02  5.628779e-02  -3.751687e-02
2.482500e+00  -2.754598e-02  -3.242303e-02  -9.412471e-01  5.295801e-02  -9.411537e-01  5.295295e-02  5.606203e-02  -3.697705e-02
2.483000e+00  -2.770391e-02  -3.124191e-02  -9.408325e-01  6.046761e-02  -9.407391e-01  6.046181e-02  5.584466e-02  -3.643036e-02
2.483500e+00  -2.784327e-02  -3.005540e-02  -9.403575e-01  6.797088e-02  -9.402641e-01  6.796434e-02  5.563579e-02  -3.587705e-02
2.484000e+00  -2.796398e-02  -2.886390e-02  -9.398222e-01  7.546736e-02  -9.397288e-01  7.546007e-02  5.543556e-02  -3.531736e-02
2.484500e+00  -2.806595e-02  -2.766782e-02  -9.392266e-01  8.295657e-02  -9.391333e-01  8.294854e-02  5.524407e-02  -3.475152e-02
2.485000e+00  -2.814911e-02  -2.646755e-02  -9.385709e-01  9.043807e-02  -9.384777e-01  9.042930e-02  5.506144e-02  -3.417979e-02
2.485500e+00  -2.821339e-02  -2.526348e-02  -9.378551e-01  9.791139e-02  -9.377619e-01  9.790187e-02  5.488777e-02  -3.360241e-02
2.486000e+00  -2.825875e-02  -2.405603e-02  -9.370793e-01  1.053761e-01  -9.369863e-01  1.053658e-01  5.472317e-02  -3.301962e-02
2.486500e+00  -2.828512e-02  -2.284559e-02  -9.362437e-01  1.128316e-01  -9.361508e-01  1.128206e-01  5.456772e-02  -3.243167e-02
2.487000e+00  -2.829247e-02  -2.163256e-02  -9.353484e-01  1.202776e-01  -9.352555e-01  1.202659e-01  5.442151e-02  -3.183881e-02
2.487500e+00  -2.828077e-02  -2.041734e-02  -9.343933e-01  1.277136e-01  -9.343006e-01  1.277011e-01  5.428463e-02  -3.124129e-02
2.488000e+00  -2.824998e-02  -1.920032e-02  -9.333788e-01  1.351391e-01  -9.332861e-01  1.351259e-01  5.415716e-02  -3.063935e-02
2.488500e+00  -2.820010e-02  -1.798192e-02  -9.323048e-01  1.425537e-01  -9.322122e-01  1.425397e-01  5.403916e-02  -3.003325e-02
2.489000e+00  -2.813111e-02  -1.676252e-02  -9.311715e-01  1.499568e-01  -9.310790e-01  1.499421e-01  5.393071e-02  -2.942323e-02
2.489500e+00  -2.804301e-02  -1.554252e-02  -9.299790e-01  1.573481e-01  -9.298866e-01  1.573327e-01  5.383185e-02  -2.880955e-02
2.490000e+00  -2.793580e-02  -1.432232e-02  -9.287274e-01  1.647271e-01  -9.286351e-01  1.647109e-01  5.374265e-02  -2.819245e-02
2.490500e+00  -2.780949e-02  -1.310231e-02  -9.274168e-01  1.720933e-01  -9.273247e-01  1.720764e-01  5.366316e-02  -2.757219e-02
2.491000e+00  -2.766411e-02  -1.188289e-02  -9.260475e-01  1.794463e-01  -9.259555e-01  1.794287e-01  5.359342e-02  -2.694901e-02
2.491500e+00  -2.749969e-02  -1.066445e-02  -9.246195e-01  1.867856e-01  -9.245277e-01  1.867673e-01  5.353347e-02  -2.632316e-02
2.492000e+00  -2.731626e-02  -9.447374e-03  -9.231330e-01  1.941108e-01  -9.230413e-01  1.940917e-01  5.348334e-02  -2.569489e-02
2.492500e+00  -2.711386e-02  -8.232059e-03  -9.215880e-01  2.014214e-01  -9.214965e-01  2.014016e-01  5.344307e-02  -2.506446e-02
2.493000e+00  -2.689254e-02  -7.018890e-03  -9.199848e-01  2.087170e-01  -9.198935e-01  2.086964e-01  5.341266e-02  -2.443211e-02
2.493500e+00  -2.665236e-02  -5.808254e-03  -9.183236e-01  2.159971e-01  -9.182323e-01  2.159758e-01  5.339215e-02  -2.379809e-02
2.494000e+00  -2.639338e-02  -4.600533e-03  -9.166043e-01  2.232612e-01  -9.165133e-01  2.232392e-01  5.338154e-02  -2.316265e-02
2.494500e+00  -2.611568e-02  -3.396111e-03  -9.148274e-01  2.305090e-01  -9.147365e-01  2.304863e-01  5.338084e-02  -2.252603e-02
2.495000e+00  -2.581934e-02  -2.195365e-03  -9.129927e-01  2.377400e-01  -9.129020e-01  2.377165e-01  5.339005e-02  -2.188848e-02
2.495500e+00  -2.550444e-02  -9.986742e-04  -9.111007e-01  2.449536e-01  -9.110102e-01  2.449295e-01  5.340916e-02  -2.125025e-02
2.496000e+00  -2.517108e-02  1.935873e-04  -9.091513e-01  2.521496e-01  -9.090610e-01  2.521248e-01  5.343818e-02  -2.061158e-02
2.496500e+00  -2.481935e-02  1.381047e-03  -9.071448e-01  2.593275e-01  -9.070547e-01  2.593019e-01  5.347707e-02  -1.997271e-02
2.497000e+00  -2.444936e-02  2.563335e-03  -9.050814e-01  2.664867e-01  -9.049915e-01  2.664605e-01  5.352583e-02  -1.933389e-02
2.497500e+00  -2.406123e-02  3.740084e-03  -9.029613e-01  2.736269e-01  -9.028716e-01  2.736000e-01  5.358443e-02  -1.869536e-02
2.498000e+00  -2.365508e-02  4.910931e-03  -9.007846e-01  2.807477e-01  -9.006951e-01  2.807200e-01  5.365284e-02  -1.805735e-02
2.498500e+00  -2.323103e-02  6.075513e-03  -8.985515e-01  2.878486e-01  -8.984622e-01  2.878202e-01  5.373102e-02  -1.742011e-02
2.499000e+00  -2.278923e-02  7.233474e-03  -8.962622e-01  2.949291e-01  -8.961731e-01  2.949000e-01  5.381894e-02  -1.678387e-02
2.499500e+00  -2.232981e-02  8.384458e-03  -8.939169e-01  3.019889e-01  -8.938281e-01  3.019591e-01  5.391655e-02  -1.614887e-02
2.500000e+00  -2.185292e-02  9.528113e-03  -8.915158e-01  3.090275e-01  -8.914272e-01  3.089970e-01  5.402380e-02  -1.551534e-02
2.500500e+00  -2.135872e-02  1.066409e-02  -8.890591e-01  3.160445e-01  -8.889708e-01  3.160133e-01  5.414064e-02  -1.488351e-02
2.501000e+00  -2.084736e-02  1.179205e-02  -8.865470e-01  3.230395e-01  -8.864590e-01  3.230076e-01  5.426701e-02  -1.425362e-02
2.501500e+00  -2.031901e-02  1.291164e-02  -8.839798e-01  3.300120e-01  -8.838920e-01  3.299794e-01  5.440284e-02  -1.362589e-02
2.502000e+00  -1.977385e-02  1.402254e-02  -8.813576e-01  3.369616e-01  -8.812700e-01  3.369283e-01  5.454807e-02  -1.300055e-02
2.502500e+00  -1.921206e-02  1.512440e-02  -8.786806e-01  3.438879e-01  -8.785933e-01  3.438539e-01  5.470262e-02  -1.237782e-02
2.503000e+00  -1.863382e-02  1.621690e-02  -8.759491e-01  3.507905e-01  -8.758621e-01  3.507559e-01  5.486642e-02  -1.175793e-02
2.503500e+00  -1.803932e-02  1.729971e-02  -8.731633e-01  3.576690e-01  -8.730765e-01  3.576337e-01  5.503938e-02  -1.114109e-02
2.504000e+00  -1.742876e-02  1.837251e-02  -8.703234e-01  3.645229e-01  -8.702369e-01  3.644869e-01  5.522141e-02  -1.052753e-02
2.504500e+00  -1.680235e-02  1.943498e-02  -8.674296e-01  3.713519e-01  -8.673434e-01  3.713152e-01  5.541243e-02  -9.917448e-03
2.505000e+00  -1.616030e-02  2.048681e-02  -8.644823e-01  3.781555e-01  -8.643963e-01  3.781182e-01  5.561234e-02  -9.311072e-03
2.505500e+00  -1.550282e-02  2.152769e-02  -8.614815e-01  3.849334e-01  -8.613959e-01  3.848954e-01  5.582104e-02  -8.708609e-03
2.506000e+00  -1.483012e-02  2.255731e-02  -8.584276e-01  3.916852e-01  -8.583423e-01  3.916465e-01  5.603842e-02  -8.110265e-03
2.506500e+00  -1.414245e-02  2.357538e-02  -8.553208e-01  3.984103e-01  -8.552358e-01  3.983709e-01  5.626438e-02  -7.516247e-03
2.507000e+00  -1.344003e-02  2.458161e-02  -8.521613e-01  4.051085e-01  -8.520766e-01  4.050685e-01  5.649880e-02  -6.926757e-03
2.507500e+00  -1.272310e-02  2.557569e-02  -8.489494e-01  4.117794e-01  -8.488650e-01  4.117387e-01  5.674156e-02  -6.341994e-03
2.508000e+00  -1.199189e-02  2.655735e-02  -8.456853e-01  4.184225e-01  -8.456013e-01  4.183812e-01  5.699255e-02  -5.762158e-03
2.508500e+00  -1.124667e-02  2.752630e-02  -8.423694e-01  4.250375e-01  -8.422857e-01  4.249955e-01  5.725164e-02  -5.187440e-03
2.509000e+00  -1.048768e-02  2.848227e-02  -8.390018e-01  4.316240e-01  -8.389184e-01  4.315813e-01  5.751869e-02  -4.618033e-03
2.509500e+00  -9.715173e-03  2.942498e-02  -8.355828e-01  4.381816e-01  -8.354997e-01  4.381383e-01  5.779359e-02  -4.054126e-03
2.510000e+00  -8.929424e-03  3.035418e-02  -8.321126e-01  4.447099e-01  -8.320299e-01  4.446659e-01  5.807618e-02  -3.495902e-03
2.510500e+00  -8.130695e-03  3.126960e-02  -8.285916e-01  4.512085e-01  -8.285093e-01  4.511639e-01  5.836633e-02  -2.943545e-03
2.511000e+00  -7.319260e-03  3.217099e-02  -8.250200e-01  4.576772e-01  -8.249380e-01  4.576319e-01  5.866390e-02  -2.397233e-03
2.511500e+00  -6.495396e-03  3.305809e-02  -8.213981e-01  4.641154e-01  -8.213165e-01  4.640695e-01  5.896873e-02  -1.857142e-03
2.512000e+00  -5.659385e-03  3.393066e-02  -8.177262e-01  4.705228e-01  -8.176449e-01  4.704763e-01  5.928068e-02  -1.323443e-03
2.512500e+00  -4.811512e-03  3.478847e-02  -8.140044e-01  4.768991e-01  -8.139235e-01  4.768520e-01  5.959958e-02  -7.963070e-04
2.513000e+00  -3.952069e-03  3.563127e-02  -8.102332e-01  4.832440e-01  -8.101526e-01  4.831962e-01  5.992529e-02  -2.758980e-04
2.513500e+00  -3.081350e-03  3.645885e-02  -8.064127e-01  4.895569e-01  -8.063325e-01  4.895085e-01  6.025764e-02  2.376215e-04
2.514000e+00  -2.199655e-03  3.727097e-02  -8.025433e-01  4.958377e-01  -8.024635e-01  4.957886e-01  6.059646e-02  7.440931e-04
2.514500e+00  -1.307286e-03  3.806743e-02  -7.986253e-01  5.020858e-01  -7.985459e-01  5.020362e-01  6.094158e-02  1.243362e-03
2.515000e+00  -4.045498e-04  3.884800e-02  -7.946589e-01  5.083011e-01  -7.945799e-01  5.082508e-01  6.129284e-02  1.735277e-03
2.515500e+00  5.082416e-04  3.961250e-02  -7.906444e-01  5.144831e-01  -7.905658e-01  5.144322e-01  6.165006e-02  2.219690e-03
2.516000e+00  1.430774e-03  4.036071e-02  -7.865822e-01  5.206314e-01  -7.865040e-01  5.205799e-01  6.201305e-02  2.696457e-03
2.516500e+00  2.362730e-03  4.109244e-02  -7.824725e-01  5.267459e-01  -7.823947e-01  5.266937e-01  6.238164e-02  3.165439e-03
2.517000e+00  3.303786e-03  4.180751e-02  -7.783156e-01  5.328260e-01  -7.782382e-01  5.327733e-01  6.275565e-02  3.626499e-03
2.517500e+00  4.253619e-03  4.250573e-02  -7.741118e-01  5.388715e-01  -7.740348e-01  5.388181e-01  6.313489e-02  4.079505e-03
2.518000e+00  5.211899e-03  4.318694e-02  -7.698614e-01  5.448820e-01  -7.697849e-01  5.448281e-01  6.351916e-02  4.524329e-03
2.518500e+00  6.178294e-03  4.385096e-02  -7.655648e-01  5.508573e-01  -7.654886e-01  5.508027e-01  6.390828e-02  4.960845e-03
2.519000e+00  7.152471e-03  4.449762e-02  -7.612221e-01  5.567969e-01  -7.611464e-01  5.567418e-01  6.430206e-02  5.388933e-03
2.519500e+00  8.134090e-03  4.512678e-02  -7.568338e-01  5.627006e-01  -7.567586e-01  5.626449e-01  6.470028e-02  5.808478e-03
2.520000e+00  9.122811e-03  4.573828e-02  -7.524002e-01  5.685680e-01  -7.523254e-01  5.685117e-01  6.510276e-02  6.219366e-03
2.520500e+00  1.011829e-02  4.633197e-02  -7.479215e-01  5.743989e-01  -7.478471e-01  5.743420e-01  6.550929e-02  6.621489e-03
2.521000e+00  1.112018e-02  4.690773e-02  -7.433980e-01  5.801928e-01  -7.433241e-01  5.801354e-01  6.591967e-02  7.014743e-03
2.521500e+00  1.212814e-02  4.746541e-02  -7.388301e-01  5.859496e-01  -7.387567e-01  5.858916e-01  6.633368e-02  7.399029e-03
2.522000e+00  1.314180e-02  4.800490e-02  -7.342182e-01  5.916689e-01  -7.341451e-01  5.916103e-01  6.675113e-02  7.774249e-03
2.522500e+00  1.416083e-02  4.852607e-02  -7.295624e-01  5.973503e-01  -7.294898e-01  5.972912e-01  6.717179e-02  8.140314e-03
2.523000e+00  1.518485e-02  4.902881e-02  -7.248631e-01  6.029937e-01  -7.247910e-01  6.029340e-01  6.759546e-02  8.497135e-03
2.523500e+00  1.621352e-02  4.951303e-02  -7.201207e-01  6.085986e-01  -7.200491e-01  6.085384e-01  6.802192e-02  8.844629e-03
2.524000e+00  1.724648e-02  4.997861e-02  -7.153354e-01  6.141649e-01  -7.152643e-01  6.141040e-01  6.845095e-02  9.182719e-03
2.524500e+00  1.828335e-02  5.042546e-02  -7.105077e-01  6.196921e-01  -7.104370e-01  6.196307e-01  6.888234e-02  9.511330e-03
2.525000e+00  1.932378e-02  5.085351e-02  -7.056377e-01  6.251801e-01  -7.055675e-01  6.251182e-01  6.931586e-02  9.830392e-03
2.525500e+00  2.036741e-02  5.126267e-02  -7.007259e-01  6.306285e-01  -7.006562e-01  6.305660e-01  6.975129e-02  1.013984e-02
2.526000e+00  2.141385e-02  5.165286e-02  -6.957725e-01  6.360371e-01  -6.957033e-01  6.359741e-01  7.018840e-02  1.043961e-02
2.526500e+00  2.246276e-02  5.202403e-02  -6.907779e-01  6.414055e-01  -6.907092e-01  6.413420e-01  7.062698e-02  1.072965e-02
2.527000e+00  2.351374e-02  5.237611e-02  -6.857424e-01  6.467336e-01  -6.856742e-01  6.466695e-01  7.106678e-02  1.100991e-02
2.527500e+00  2.456644e-02  5.270905e-02  -6.806664e-01  6.520209e-01  -6.805987e-01  6.519563e-01  7.150760e-02  1.128034e-02
2.528000e+00  2.562048e-02  5.302280e-02  -6.755501e-01  6.572674e-01  -6.754829e-01  6.572023e-01  7.194918e-02  1.154089e-02
2.528500e+00  2.667549e-02  5.331733e-02  -6.703940e-01  6.624726e-01  -6.703273e-01  6.624070e-01  7.239132e-02  1.179153e-02
2.529000e+00  2.773109e-02  5.359260e-02  -6.651983e-01  6.676363e-01  -6.651321e-01  6.675702e-01  7.283376e-02  1.203222e-02
2.529500e+00  2.878690e-02  5.384858e-02  -6.599633e-01  6.727584e-01  -6.598976e-01  6.726917e-01  7.327628e-02  1.226294e-02
2.530000e+00  2.984255e-02  5.408526e-02  -6.546894e-01  6.778384e-01  -6.546243e-01  6.777713e-01  7.371864e-02  1.248365e-02
2.530500e+00  3.089766e-02  5.430262e-02  -6.493770e-01  6.828762e-01  -6.493124e-01  6.828086e-01  7.416062e-02  1.269435e-02
2.531000e+00  3.195185e-02  5.450067e-02  -6.440263e-01  6.878716e-01  -6.439622e-01  6.878034e-01  7.460196e-02  1.289501e-02
2.531500e+00  3.300475e-02  5.467939e-02  -6.386378e-01  6.928241e-01  -6.385742e-01  6.927555e-01  7.504245e-02  1.308562e-02
2.532000e+00  3.405597e-02  5.483880e-02  -6.332116e-01  6.977337e-01  -6.331486e-01  6.976646e-01  7.548183e-02  1.326619e-02
2.532500e+00  3.510514e-02  5.497891e-02  -6.277483e-01  7.026001e-01  -6.276858e-01  7.025305e-01  7.591987e-02  1.343669e-02
2.533000e+00  3.615188e-02  5.509974e-02  -6.222480e-01  7.074230e-01  -6.221861e-01  7.073529e-01  7.635633e-02  1.359715e-02
2.533500e+00  3.719581e-02  5.520133e-02  -6.167112e-01  7.122022e-01  -6.166498e-01  7.121317e-01  7.679097e-02  1.374756e-02
2.534000e+00  3.823655e-02  5.528369e-02  -6.111382e-01  7.169375e-01  -6.110773e-01  7.168665e-01  7.722356e-02  1.388795e-02
2.534500e+00  3.927371e-02  5.534689e-02  -6.055293e-01  7.216286e-01  -6.054690e-01  7.215571e-01  7.765384e-02  1.401832e-02
2.535000e+00  4.030693e-02  5.539096e-02  -5.998848e-01  7.262753e-01  -5.998251e-01  7.262034e-01  7.808159e-02  1.413870e-02
2.535500e+00  4.133582e-02  5.541597e-02  -5.942052e-01  7.308775e-01  -5.941460e-01  7.308050e-01  7.850657e-02  1.424911e-02
2.536000e+00  4.236000e-02  5.542196e-02  -5.884906e-01  7.354347e-01  -5.884321e-01  7.353618e-01  7.892852e-02  1.434960e-02
2.536500e+00  4.337910e-02  5.540901e-02  -5.827416e-01  7.399469e-01  -5.826836e-01  7.398736e-01  7.934721e-02  1.444018e-02
2.537000e+00  4.439274e-02  5.537721e-02  -5.769584e-01  7.444139e-01  -5.769009e-01  7.443401e-01  7.976241e-02  1.452091e-02
2.537500e+00  4.540055e-02  5.532661e-02  -5.711413e-01  7.488353e-01  -5.710844e-01  7.487611e-01  8.017386e-02  1.459183e-02
2.538000e+00  4.640215e-02  5.525733e-02  -5.652907e-01  7.532110e-01  -5.652344e-01  7.531364e-01  8.058134e-02  1.465300e-02
2.538500e+00  4.739715e-02  5.516944e-02  -5.594069e-01  7.575409e-01  -5.593512e-01  7.574658e-01  8.098459e-02  1.470445e-02
2.539000e+00  4.838521e-02  5.506306e-02  -5.534903e-01  7.618246e-01  -5.534352e-01  7.617490e-01  8.138338e-02  1.474626e-02
2.539500e+00  4.936593e-02  5.493829e-02  -5.475412e-01  7.660619e-01  -5.474867e-01  7.659860e-01  8.177748e-02  1.477849e-02
2.540000e+00  5.033895e-02  5.479525e-02  -5.415599e-01  7.702528e-01  -5.415060e-01  7.701764e-01  8.216663e-02  1.480121e-02
2.540500e+00  5.130389e-02  5.463405e-02  -5.355468e-01  7.743969e-01  -5.354935e-01  7.743201e-01  8.255061e-02  1.481449e-02
2.541000e+00  5.226040e-02  5.445483e-02  -5.295023e-01  7.784941e-01  -5.294495e-01  7.784169e-01  8.292918e-02  1.481842e-02
2.541500e+00  5.320811e-02  5.425773e-02  -5.234266e-01  7.825442e-01  -5.233744e-01  7.824666e-01  8.330209e-02  1.481306e-02
2.542000e+00  5.414664e-02  5.404287e-02  -5.173201e-01  7.865470e-01  -5.172686e-01  7.864690e-01  8.366912e-02  1.479852e-02
2.542500e+00  5.507564e-02  5.381042e-02  -5.111831e-01  7.905022e-01  -5.111322e-01  7.904238e-01  8.403003e-02  1.477489e-02
2.543000e+00  5.599474e-02  5.356052e-02  -5.050160e-01  7.944098e-01  -5.049657e-01  7.943310e-01  8.438458e-02  1.474226e-02
2.543500e+00  5.690359e-02  5.329334e-02  -4.988191e-01  7.982695e-01  -4.987695e-01  7.981903e-01  8.473254e-02  1.470073e-02
2.544000e+00  5.780183e-02  5.300905e-02  -4.925928e-01  8.020811e-01  -4.925437e-01  8.020016e-01  8.507367e-02  1.465041e-02
2.544500e+00  5.868909e-02  5.270781e-02  -4.863374e-01  8.058445e-01  -4.862889e-01  8.057646e-01  8.540776e-02  1.459142e-02
2.545000e+00  5.956504e-02  5.238982e-02  -4.800532e-01  8.095594e-01  -4.800053e-01  8.094792e-01  8.573456e-02  1.452387e-02
2.545500e+00  6.042932e-02  5.205524e-02  -4.737405e-01  8.132258e-01  -4.736933e-01  8.131451e-01  8.605384e-02  1.444788e-02
2.546000e+00  6.128157e-02  5.170429e-02  -4.673997e-01  8.168433e-01  -4.673532e-01  8.167623e-01  8.636539e-02  1.436357e-02
2.546500e+00  6.212146e-02  5.133715e-02  -4.610312e-01  8.204119e-01  -4.609853e-01  8.203306e-01  8.666897e-02  1.427108e-02
2.547000e+00  6.294864e-02  5.095404e-02  -4.546353e-01  8.239314e-01  -4.545899e-01  8.238497e-01  8.696436e-02  1.417053e-02
2.547500e+00  6.376277e-02  5.055517e-02  -4.482122e-01  8.274015e-01  -4.481675e-01  8.273195e-01  8.725134e-02  1.406208e-02
2.548000e+00  6.456351e-02  5.014075e-02  -4.417624e-01  8.308222e-01  -4.417184e-01  8.307398e-01  8.752968e-02  1.394586e-02
2.548500e+00  6.535053e-02  4.971100e-02  -4.352862e-01  8.341933e-01  -4.352428e-01  8.341106e-01  8.779917e-02  1.382202e-02
2.549000e+00  6.612348e-02  4.926617e-02  -4.287838e-01  8.375145e-01  -4.287411e-01  8.374315e-01  8.805959e-02  1.369072e-02
2.549500e+00  6.688205e-02  4.880648e-02  -4.222557e-01  8.407858e-01  -4.222136e-01  8.407024e-01  8.831071e-02  1.355211e-02
2.550000e+00  6.762591e-02  4.833219e-02  -4.157022e-01  8.440069e-01  -4.156608e-01  8.439232e-01  8.855234e-02  1.340635e-02
2.550500e+00  6.835473e-02  4.784353e-02  -4.091236e-01  8.471777e-01  -4.090828e-01  8.470937e-01  8.878424e-02  1.325361e-02
2.551000e+00  6.906820e-02  4.734076e-02  -4.025203e-01  8.502981e-01  -4.024801e-01  8.502137e-01  8.900622e-02  1.309406e-02
2.551500e+00  6.976599e-02  4.682415e-02  -3.958925e-01  8.533678e-01  -3.958530e-01  8.532831e-01  8.921807e-02  1.292788e-02
2.552000e+00  7.044780e-02  4.629397e-02  -3.892407e-01  8.563867e-01  -3.892018e-01  8.563018e-01  8.941957e-02  1.275525e-02
2.552500e+00  7.111331e-02  4.575048e-02  -3.825650e-01  8.593547e-01  -3.825269e-01  8.592695e-01  8.961054e-02  1.257634e-02
2.553000e+00  7.176222e-02  4.519396e-02  -3.758660e-01  8.622716e-01  -3.758285e-01  8.621861e-01  8.979075e-02  1.239136e-02
2.553500e+00  7.239422e-02  4.462470e-02  -3.691438e-01  8.651373e-01  -3.691070e-01  8.650515e-01  8.996002e-02  1.220049e-02
2.554000e+00  7.300902e-02  4.404299e-02  -3.623989e-01  8.679515e-01  -3.623627e-01  8.678655e-01  9.011815e-02  1.200393e-02
2.554500e+00  7.360633e-02  4.344913e-02  -3.556316e-01  8.707142e-01  -3.555961e-01  8.706279e-01  9.026494e-02  1.180188e-02
2.555000e+00  7.418584e-02  4.284342e-02  -3.488421e-01  8.734252e-01  -3.488073e-01  8.733386e-01  9.040021e-02  1.159455e-02
2.555500e+00  7.474728e-02  4.222617e-02  -3.420309e-01  8.760843e-01  -3.419967e-01  8.759974e-01  9.052376e-02  1.138215e-02
2.556000e+00  7.529036e-02  4.159769e-02  -3.351982e-01  8.786914e-01  -3.351648e-01  8.786043e-01  9.063540e-02  1.116489e-02
2.556500e+00  7.581481e-02  4.095829e-02  -3.283444e-01  8.812464e-01  -3.283117e-01  8.811589e-01  9.073496e-02  1.094300e-02
2.557000e+00  7.632034e-02  4.030832e-02  -3.214699e-01  8.837490e-01  -3.214378e-01  8.836613e-01  9.082225e-02  1.071669e-02
2.557500e+00  7.680670e-02  3.964809e-02  -3.145749e-01  8.861991e-01  -3.145434e-01  8.861112e-01  9.089709e-02  1.048620e-02
2.558000e+00  7.727360e-02  3.897794e-02  -3.076597e-01  8.885967e-01  -3.076290e-01  8.885085e-01  9.095932e-02  1.025175e-02
2.558500e+00  7.772080e-02  3.829822e-02  -3.007248e-01  8.909415e-01  -3.006947e-01  8.908531e-01  9.100875e-02  1.001358e-02
2.559000e+00  7.814804e-02  3.760926e-02  -2.937704e-01  8.932334e-01  -2.937410e-01  8.931447e-01  9.104522e-02  9.771940e-03
2.559500e+00  7.855506e-02  3.691144e-02  -2.867968e-01  8.954722e-01  -2.867682e-01  8.953833e-01  9.106857e-02  9.527062e-03
2.560000e+00  7.894162e-02  3.620509e-02  -2.798045e-01  8.976578e-01  -2.797765e-01  8.975688e-01  9.107863e-02  9.279199e-03
2.560500e+00  7.930747e-02  3.549059e-02  -2.727936e-01  8.997901e-01  -2.727664e-01  8.997008e-01  9.107523e-02  9.028603e-03
2.561000e+00  7.965239e-02  3.476830e-02  -2.657647e-01  9.018689e-01  -2.657381e-01  9.017794e-01  9.105824e-02  8.775530e-03
2.561500e+00  7.997613e-02  3.403860e-02  -2.587178e-01  9.038941e-01  -2.586920e-01  9.038044e-01  9.102749e-02  8.520241e-03
2.562000e+00  8.027847e-02  3.330186e-02  -2.516535e-01  9.058655e-01  -2.516284e-01  9.057756e-01  9.098284e-02  8.263000e-03
2.562500e+00  8.055919e-02  3.255847e-02  -2.445721e-01  9.077830e-01  -2.445476e-01  9.076929e-01  9.092414e-02  8.004076e-03
2.563000e+00  8.081807e-02  3.180882e-02  -2.374738e-01  9.096464e-01  -2.374500e-01  9.095561e-01  9.085124e-02  7.743740e-03
2.563500e+00  8.105491e-02  3.105331e-02  -2.303589e-01  9.114556e-01  -2.303359e-01  9.113651e-01  9.076402e-02  7.482271e-03
2.564000e+00  8.126949e-02  3.029232e-02  -2.232280e-01  9.132104e-01  -2.232056e-01  9.131198e-01  9.066234e-02  7.219946e-03
2.564500e+00  8.146161e-02  2.952627e-02  -2.160811e-01  9.149107e-01  -2.160595e-01  9.148200e-01  9.054607e-02  6.957051e-03
2.565000e+00  8.163108e-02  2.875557e-02  -2.089188e-01  9.165564e-01  -2.088978e-01  9.164655e-01  9.041507e-02  6.693873e-03
2.565500e+00  8.177772e-02  2.798062e-02  -2.017412e-01  9.181474e-01  -2.017210e-01  9.180562e-01  9.026924e-02  6.430704e-03
2.566000e+00  8.190133e-02  2.720185e-02  -1.945488e-01  9.196833e-01  -1.945293e-01  9.195921e-01  9.010845e-02  6.167839e-03
2.566500e+00  8.200175e-02  2.641967e-02  -1.873419e-01  9.211642e-01  -1.873231e-01  9.210728e-01  8.993259e-02  5.905577e-03
2.567000e+00  8.207879e-02  2.563453e-02  -1.801208e-01  9.225899e-01  -1.801027e-01  9.224983e-01  8.974155e-02  5.644220e-03
2.567500e+00  8.213230e-02  2.484684e-02  -1.728858e-01  9.239602e-01  -1.728684e-01  9.238685e-01  8.953522e-02  5.384075e-03
2.568000e+00  8.216212e-02  2.405705e-02  -1.656373e-01  9.252750e-01  -1.656207e-01  9.251832e-01  8.931351e-02  5.125451e-03
2.568500e+00  8.216809e-02  2.326560e-02  -1.583756e-01  9.265341e-01  -1.583597e-01  9.264422e-01  8.907631e-02  4.868663e-03
2.569000e+00  8.215007e-02  2.247293e-02  -1.511011e-01  9.277374e-01  -1.510859e-01  9.276454e-01  8.882354e-02  4.614026e-03
2.569500e+00  8.210791e-02  2.167950e-02  -1.438140e-01  9.288848e-01  -1.437995e-01  9.287926e-01  8.855510e-02  4.361863e-03
2.570000e+00  8.204148e-02  2.088576e-02  -1.365148e-01  9.299761e-01  -1.365010e-01  9.298838e-01  8.827092e-02  4.112495e-03
2.570500e+00  8.195066e-02  2.009216e-02  -1.292037e-01  9.310111e-01  -1.291906e-01  9.309187e-01  8.797091e-02  3.866251e-03
2.571000e+00  8.183532e-02  1.929917e-02  -1.218811e-01  9.319897e-01  -1.218688e-01  9.318972e-01  8.765501e-02  3.623461e-03
2.571500e+00  8.169536e-02  1.850727e-02  -1.145473e-01  9.329118e-01  -1.145357e-01  9.328192e-01  8.732314e-02  3.384459e-03
2.572000e+00  8.153066e-02  1.771691e-02  -1.072027e-01  9.337772e-01  -1.071918e-01  9.336845e-01  8.697524e-02  3.149583e-03
2.572500e+00  8.134112e-02  1.692858e-02  -9.984760e-02  9.345858e-01  -9.983748e-02  9.344930e-01  8.661126e-02  2.919173e-03
2.573000e+00  8.112665e-02  1.614275e-02  -9.248237e-02  9.353374e-01  -9.247299e-02  9.352445e-01  8.623113e-02  2.693572e-03
2.573500e+00  8.088716e-02  1.535991e-02  -8.510735e-02  9.360318e-01  -8.509870e-02  9.359389e-01  8.583482e-02  2.473127e-03
2.574000e+00  8.062258e-02  1.458055e-02  -7.772288e-02  9.366689e-01  -7.771496e-02  9.365759e-01  8.542228e-02  2.258189e-03
2.574500e+00  8.033283e-02  1.380515e-02  -7.032931e-02  9.372486e-01  -7.032212e-02  9.371556e-01  8.499347e-02  2.049110e-03
2.575000e+00  8.001785e-02  1.303421e-02  -6.292698e-02  9.377707e-01  -6.292053e-02  9.376776e-01  8.454835e-02  1.846246e-03
2.575500e+00  7.967758e-02  1.226823e-02  -5.551626e-02  9.382350e-01  -5.551054e-02  9.381419e-01  8.408691e-02  1.649955e-03
2.576000e+00  7.931197e-02  1.150772e-02  -4.809748e-02  9.386415e-01  -4.809251e-02  9.385483e-01  8.360913e-02  1.460601e-03
2.576500e+00  7.892098e-02  1.075317e-02  -4.067102e-02  9.389898e-01  -4.066678e-02  9.388966e-01  8.311497e-02  1.278546e-03
2.577000e+00  7.850458e-02  1.000509e-02  -3.323722e-02  9.392800e-01  -3.323372e-02  9.391868e-01  8.260445e-02  1.104160e-03
2.577500e+00  7.806273e-02  9.264000e-03  -2.579645e-02  9.395118e-01  -2.579368e-02  9.394185e-01  8.207755e-02  9.378111e-04
2.578000e+00  7.759543e-02  8.530413e-03  -1.834906e-02  9.396851e-01  -1.834703e-02  9.395918e-01  8.153427e-02  7.798730e-04
2.578500e+00  7.710266e-02  7.804846e-03  -1.089542e-02  9.397996e-01  -1.089414e-02  9.397063e-01  8.097463e-02  6.307210e-04
2.579000e+00  7.658441e-02  7.087822e-03  -3.435897e-03  9.398554e-01  -3.435353e-03  9.397621e-01  8.039863e-02  4.907330e-04
2.579500e+00  7.604070e-02  6.379864e-03  4.029142e-03  9.398521e-01  4.028945e-03  9.397588e-01  7.980630e-02  3.602896e-04
2.580000e+00  7.547154e-02  5.681501e-03  1.149933e-02  9.397897e-01  1.149839e-02  9.396964e-01  7.919766e-02  2.397736e-04
2.580500e+00  7.487694e-02  4.993263e-03  1.897428e-02  9.396680e-01  1.897260e-02  9.395747e-01  7.857275e-02  1.295704e-04
2.581000e+00  7.425695e-02  4.315682e-03  2.645363e-02  9.394867e-01  2.645121e-02  9.393935e-01  7.793160e-02  3.006741e-05
2.581500e+00  7.361159e-02  3.649296e-03  3.393700e-02  9.392459e-01  3.393383e-02  9.391526e-01  7.727427e-02  -5.834542e-05
2.582000e+00  7.294093e-02  2.994642e-03  4.142400e-02  9.389452e-01  4.142009e-02  9.388520e-01  7.660079e-02  -1.352761e-04
2.582500e+00  7.224500e-02  2.352261e-03  4.891424e-02  9.385846e-01  4.890959e-02  9.384914e-01  7.591124e-02  -2.003307e-04
2.583000e+00  7.152389e-02  1.722696e-03  5.640735e-02  9.381638e-01  5.640195e-02  9.380706e-01  7.520567e-02  -2.531129e-04
2.583500e+00  7.077766e-02  1.106493e-03  6.390292e-02  9.376827e-01  6.389678e-02  9.375896e-01  7.448417e-02  -2.932248e-04
2.584000e+00  7.000641e-02  5.042007e-04  7.140057e-02  9.371412e-01  7.139368e-02  9.370482e-01  7.374679e-02  -3.202664e-04
2.584500e+00  6.921021e-02  -8.363224e-05  7.889989e-02  9.365390e-01  7.889226e-02  9.364461e-01  7.299365e-02  -3.338360e-04
2.585000e+00  6.838917e-02  -6.564536e-04  8.640048e-02  9.358761e-01  8.639211e-02  9.357832e-01  7.222481e-02  -3.335302e-04
2.585500e+00  6.754341e-02  -1.213710e-03  9.390194e-02  9.351522e-01  9.389282e-02  9.350593e-01  7.144040e-02  -3.189439e-04
2.586000e+00  6.667305e-02  -1.754845e-03  1.014039e-01  9.343672e-01  1.013940e-01  9.342744e-01  7.064050e-02  -2.896706e-04
2.586500e+00  6.577821e-02  -2.279302e-03  1.089058e-01  9.335208e-01  1.088952e-01  9.334281e-01  6.982525e-02  -2.453022e-04
2.587000e+00  6.485903e-02  -2.786523e-03  1.164074e-01  9.326131e-01  1.163961e-01  9.325204e-01  6.899475e-02  -1.854292e-04
2.587500e+00  6.391568e-02  -3.275946e-03  1.239082e-01  9.316436e-01  1.238961e-01  9.315511e-01  6.814915e-02  -1.096411e-04
2.588000e+00  6.294829e-02  -3.747012e-03  1.314078e-01  9.306124e-01  1.313949e-01  9.305200e-01  6.728857e-02  -1.752580e-05
2.588500e+00  6.195705e-02  -4.199156e-03  1.389057e-01  9.295193e-01  1.388921e-01  9.294270e-01  6.641316e-02  9.132950e-05
2.589000e+00  6.094214e-02  -4.631816e-03  1.464015e-01  9.283640e-01  1.463872e-01  9.282718e-01  6.552308e-02  2.173388e-04
2.589500e+00  5.990373e-02  -5.044426e-03  1.538948e-01  9.271464e-01  1.538797e-01  9.270543e-01  6.461848e-02  3.609169e-04
2.590000e+00  5.884205e-02  -5.436422e-03  1.613852e-01  9.258663e-01  1.613693e-01  9.257743e-01  6.369953e-02  5.224794e-04
2.590500e+00  5.775728e-02  -5.807237e-03  1.688721e-01  9.245236e-01  1.688555e-01  9.244317e-01  6.276641e-02  7.024426e-04
2.591000e+00  5.664966e-02  -6.156304e-03  1.763551e-01  9.231180e-01  1.763378e-01  9.230263e-01  6.181931e-02  9.012232e-04
2.591500e+00  5.551942e-02  -6.483058e-03  1.838338e-01  9.216495e-01  1.838158e-01  9.215580e-01  6.085840e-02  1.119239e-03
2.592000e+00  5.436679e-02  -6.786930e-03  1.913077e-01  9.201179e-01  1.912889e-01  9.200265e-01  5.988391e-02  1.356906e-03
2.592500e+00  5.319204e-02  -7.067353e-03  1.987764e-01  9.185229e-01  1.987569e-01  9.184317e-01  5.889603e-02  1.614644e-03
2.593000e+00  5.199542e-02  -7.323760e-03  2.062393e-01  9.168645e-01  2.062190e-01  9.167734e-01  5.789498e-02  1.892871e-03
2.593500e+00  5.077721e-02  -7.555584e-03  2.136960e-01  9.151424e-01  2.136750e-01  9.150515e-01  5.688099e-02  2.192003e-03
2.594000e+00  4.953770e-02  -7.762259e-03  2.211460e-01  9.133565e-01  2.211242e-01  9.132657e-01  5.585429e-02  2.512458e-03
2.594500e+00  4.827717e-02  -7.943219e-03  2.285888e-01  9.115066e-01  2.285663e-01  9.114160e-01  5.481513e-02  2.854655e-03
2.595000e+00  4.699595e-02  -8.097897e-03  2.360238e-01  9.095926e-01  2.360006e-01  9.095022e-01  5.376376e-02  3.219010e-03
2.595500e+00  4.569435e-02  -8.225731e-03  2.434507e-01  9.076142e-01  2.434268e-01  9.075241e-01  5.270043e-02  3.605940e-03
2.596000e+00  4.437270e-02  -8.326155e-03  2.508689e-01  9.055714e-01  2.508442e-01  9.054815e-01  5.162543e-02  4.015859e-03
2.596500e+00  4.303134e-02  -8.398610e-03  2.582779e-01  9.034640e-01  2.582524e-01  9.033742e-01  5.053902e-02  4.449184e-03
2.597000e+00  4.167063e-02  -8.442533e-03  2.656771e-01  9.012917e-01  2.656509e-01  9.012022e-01  4.944150e-02  4.906327e-03
2.597500e+00  4.029093e-02  -8.457365e-03  2.730660e-01  8.990546e-01  2.730391e-01  8.989652e-01  4.833317e-02  5.387703e-03
2.598000e+00  3.889262e-02  -8.442550e-03  2.804441e-01  8.967523e-01  2.804165e-01  8.966632e-01  4.721432e-02  5.893721e-03
2.598500e+00  3.747610e-02  -8.397533e-03  2.878109e-01  8.943847e-01  2.877825e-01  8.942958e-01  4.608528e-02  6.424792e-03
2.599000e+00  3.604175e-02  -8.321760e-03  2.951657e-01  8.919517e-01  2.951366e-01  8.918631e-01  4.494637e-02  6.981324e-03
2.599500e+00  3.459000e-02  -8.214681e-03  3.025081e-01  8.894532e-01  3.024783e-01  8.893648e-01  4.379793e-02  7.563725e-03
2.600000e+00  3.312128e-02  -8.075747e-03  3.098375e-01  8.868889e-01  3.098069e-01  8.868008e-01  4.264030e-02  8.172397e-03
2.600500e+00  3.163601e-02  -7.904415e-03  3.171533e-01  8.842588e-01  3.171220e-01  8.841709e-01  4.147383e-02  8.807744e-03
2.601000e+00  3.013466e-02  -7.700142e-03  3.244549e-01  8.815626e-01  3.244229e-01  8.814750e-01  4.029889e-02  9.470166e-03
2.601500e+00  2.861767e-02  -7.462389e-03  3.317417e-01  8.788003e-01  3.317090e-01  8.787130e-01  3.911585e-02  1.016006e-02
2.602000e+00  2.708554e-02  -7.190621e-03  3.390132e-01  8.759717e-01  3.389798e-01  8.758846e-01  3.792510e-02  1.087782e-02
2.602500e+00  2.553875e-02  -6.884307e-03  3.462688e-01  8.730766e-01  3.462346e-01  8.729899e-01  3.672702e-02  1.162384e-02
2.603000e+00  2.397779e-02  -6.542920e-03  3.535078e-01  8.701150e-01  3.534729e-01  8.700286e-01  3.552203e-02  1.239851e-02
2.603500e+00  2.240318e-02  -6.165936e-03  3.607297e-01  8.670867e-01  3.606940e-01  8.670006e-01  3.431052e-02  1.320221e-02
2.604000e+00  2.081545e-02  -5.752837e-03  3.679337e-01  8.639916e-01  3.678974e-01  8.639058e-01  3.309294e-02  1.403533e-02
2.604500e+00  1.921514e-02  -5.303109e-03  3.751193e-01  8.608295e-01  3.750823e-01  8.607440e-01  3.186971e-02  1.489824e-02
2.605000e+00  1.760280e-02  -4.816244e-03  3.822859e-01  8.576004e-01  3.822481e-01  8.575152e-01  3.064127e-02  1.579132e-02
2.605500e+00  1.597899e-02  -4.291737e-03  3.894328e-01  8.543041e-01  3.893943e-01  8.542192e-01  2.940808e-02  1.671494e-02
2.606000e+00  1.434429e-02  -3.729091e-03  3.965593e-01  8.509405e-01  3.965201e-01  8.508559e-01  2.817061e-02  1.766946e-02
2.606500e+00  1.269929e-02  -3.127815e-03  4.036647e-01  8.475094e-01  4.036248e-01  8.474252e-01  2.692932e-02  1.865525e-02
2.607000e+00  1.104460e-02  -2.487421e-03  4.107485e-01  8.440109e-01  4.107079e-01  8.439270e-01  2.568471e-02  1.967266e-02
2.607500e+00  9.380826e-03  -1.807431e-03  4.178099e-01  8.404448e-01  4.177686e-01  8.403613e-01  2.443726e-02  2.072205e-02
2.608000e+00  7.708611e-03  -1.087372e-03  4.248482e-01  8.368110e-01  4.248062e-01  8.367278e-01  2.318748e-02  2.180376e-02
2.608500e+00  6.028591e-03  -3.267779e-04  4.318628e-01  8.331094e-01  4.318201e-01  8.330266e-01  2.193590e-02  2.291814e-02
2.609000e+00  4.341425e-03  4.748098e-04  4.388529e-01  8.293400e-01  4.388095e-01  8.292576e-01  2.068303e-02  2.406551e-02
2.609500e+00  2.647782e-03  1.317842e-03  4.458178e-01  8.255027e-01  4.457737e-01  8.254206e-01  1.942941e-02  2.524620e-02
2.610000e+00  9.483455e-04  2.202761e-03  4.527568e-01  8.215973e-01  4.527121e-01  8.215157e-01  1.817559e-02  2.646055e-02
2.610500e+00  -7.561889e-04  3.130003e-03  4.596692e-01  8.176239e-01  4.596237e-01  8.175427e-01  1.692213e-02  2.770886e-02
2.611000e+00  -2.465111e-03  4.099992e-03  4.665542e-01  8.135824e-01  4.665081e-01  8.135016e-01  1.566960e-02  2.899145e-02
2.611500e+00  -4.177699e-03  5.113146e-03  4.734111e-01  8.094728e-01  4.733643e-01  8.093923e-01  1.441858e-02  3.030861e-02
2.612000e+00  -5.893215e-03  6.169874e-03  4.802391e-01  8.052949e-01  4.801916e-01  8.052149e-01  1.316965e-02  3.166065e-02
2.612500e+00  -7.610912e-03  7.270572e-03  4.870374e-01  8.010488e-01  4.869893e-01  8.009692e-01  1.192342e-02  3.304784e-02
2.613000e+00  -9.330027e-03  8.415631e-03  4.938054e-01  7.967345e-01  4.937565e-01  7.966553e-01  1.068049e-02  3.447048e-02
2.613500e+00  -1.104978e-02  9.605427e-03  5.005421e-01  7.923519e-01  5.004926e-01  7.922731e-01  9.441491e-03  3.592883e-02
2.614000e+00  -1.276939e-02  1.084033e-02  5.072468e-01  7.879010e-01  5.071966e-01  7.878226e-01  8.207051e-03  3.742316e-02
2.614500e+00  -1.448806e-02  1.212069e-02  5.139188e-01  7.833818e-01  5.138679e-01  7.833039e-01  6.977811e-03  3.895371e-02
2.615000e+00  -1.620496e-02  1.344686e-02  5.205571e-01  7.787944e-01  5.205056e-01  7.787170e-01  5.754424e-03  4.052073e-02
2.615500e+00  -1.791927e-02  1.481917e-02  5.271610e-01  7.741387e-01  5.271088e-01  7.740618e-01  4.537552e-03  4.212447e-02
2.616000e+00  -1.963015e-02  1.623795e-02  5.337296e-01  7.694148e-01  5.336768e-01  7.693383e-01  3.327868e-03  4.376514e-02
2.616500e+00  -2.133675e-02  1.770349e-02  5.402622e-01  7.646228e-01  5.402087e-01  7.645468e-01  2.126053e-03  4.544297e-02
2.617000e+00  -2.303820e-02  1.921610e-02  5.467578e-01  7.597626e-01  5.467037e-01  7.596870e-01  9.328016e-04  4.715815e-02
2.617500e+00  -2.473363e-02  2.077606e-02  5.532156e-01  7.548343e-01  5.531609e-01  7.547593e-01  -2.511845e-04  4.891089e-02
2.618000e+00  -2.642213e-02  2.238363e-02  5.596348e-01  7.498381e-01  5.595794e-01  7.497635e-01  -1.425193e-03  5.070136e-02
2.618500e+00  -2.810282e-02  2.403908e-02  5.660145e-01  7.447740e-01  5.659585e-01  7.446999e-01  -2.588500e-03  5.252975e-02
2.619000e+00  -2.977477e-02  2.574264e-02  5.723538e-01  7.396420e-01  5.722971e-01  7.395684e-01  -3.740376e-03  5.439621e-02
2.619500e+00  -3.143707e-02  2.749455e-02  5.786518e-01  7.344423e-01  5.785945e-01  7.343693e-01  -4.880077e-03  5.630089e-02
2.620000e+00  -3.308876e-02  2.929500e-02  5.849076e-01  7.291751e-01  5.848497e-01  7.291025e-01  -6.006854e-03  5.824393e-02
2.620500e+00  -3.472890e-02  3.114420e-02  5.911204e-01  7.238404e-01  5.910618e-01  7.237684e-01  -7.119945e-03  6.022546e-02
2.621000e+00  -3.635653e-02  3.304232e-02  5.972891e-01  7.184383e-01  5.972300e-01  7.183669e-01  -8.218582e-03  6.224558e-02
2.621500e+00  -3.797067e-02  3.498953e-02  6.034130e-01  7.129692e-01  6.033532e-01  7.128982e-01  -9.301986e-03  6.430441e-02
2.622000e+00  -3.957034e-02  3.698597e-02  6.094910e-01  7.074330e-01  6.094307e-01  7.073626e-01  -1.036937e-02  6.640201e-02
2.622500e+00  -4.115455e-02  3.903177e-02  6.155223e-01  7.018301e-01  6.154614e-01  7.017603e-01  -1.141994e-02  6.853847e-02
2.623000e+00  -4.272229e-02  4.112705e-02  6.215059e-01  6.961606e-01  6.214443e-01  6.960913e-01  -1.245289e-02  7.071384e-02
2.623500e+00  -4.427254e-02  4.327189e-02  6.274408e-01  6.904247e-01  6.273787e-01  6.903560e-01  -1.346740e-02  7.292817e-02
2.624000e+00  -4.580428e-02  4.546636e-02  6.333262e-01  6.846226e-01  6.332635e-01  6.845545e-01  -1.446267e-02  7.518148e-02
2.624500e+00  -4.731647e-02  4.771053e-02  6.391610e-01  6.787547e-01  6.390977e-01  6.786872e-01  -1.543785e-02  7.747378e-02
2.625000e+00  -4.880806e-02  5.000443e-02  6.449443e-01  6.728211e-01  6.448804e-01  6.727542e-01  -1.639212e-02  7.980508e-02
2.625500e+00  -5.027801e-02  5.234808e-02  6.506751e-01  6.668222e-01  6.506106e-01  6.667559e-01  -1.732462e-02  8.217536e-02
2.626000e+00  -5.172524e-02  5.474147e-02  6.563524e-01  6.607583e-01  6.562874e-01  6.606925e-01  -1.823451e-02  8.458457e-02
2.626500e+00  -5.314869e-02  5.718458e-02  6.619753e-01  6.546296e-01  6.619097e-01  6.545644e-01  -1.912094e-02  8.703267e-02
2.627000e+00  -5.454727e-02  5.967736e-02  6.675427e-01  6.484365e-01  6.674766e-01  6.483720e-01  -1.998304e-02  8.951960e-02
2.627500e+00  -5.591990e-02  6.221975e-02  6.730537e-01  6.421793e-01  6.729870e-01  6.421154e-01  -2.081993e-02  9.204526e-02
2.628000e+00  -5.726548e-02  6.481166e-02  6.785073e-01  6.358585e-01  6.784401e-01  6.357952e-01  -2.163075e-02  9.460956e-02
2.628500e+00  -5.858290e-02  6.745298e-02  6.839025e-01  6.294743e-01  6.838347e-01  6.294117e-01  -2.241461e-02  9.721236e-02
2.629000e+00  -5.987106e-02  7.014357e-02  6.892382e-01  6.230272e-01  6.891699e-01  6.229652e-01  -2.317062e-02  9.985355e-02
2.629500e+00  -6.112885e-02  7.288328e-02  6.945135e-01  6.165177e-01  6.944447e-01  6.164563e-01  -2.389790e-02  1.025329e-01
2.630000e+00  -6.235513e-02  7.567193e-02  6.997274e-01  6.099461e-01  6.996580e-01  6.098854e-01  -2.459554e-02  1.052504e-01
2.630500e+00  -6.354879e-02  7.850932e-02  7.048788e-01  6.033130e-01  7.048089e-01  6.032529e-01  -2.526266e-02  1.080057e-01
2.631000e+00  -6.470868e-02  8.139522e-02  7.099667e-01  5.966188e-01  7.098963e-01  5.965594e-01  -2.589833e-02  1.107986e-01
2.631500e+00  -6.583368e-02  8.432938e-02  7.149901e-01  5.898639e-01  7.149192e-01  5.898052e-01  -2.650166e-02  1.136289e-01
2.632000e+00  -6.692264e-02  8.731153e-02  7.199480e-01  5.830490e-01  7.198766e-01  5.829910e-01  -2.707174e-02  1.164964e-01
2.632500e+00  -6.797442e-02  9.034136e-02  7.248393e-01  5.761746e-01  7.247675e-01  5.761173e-01  -2.760764e-02  1.194007e-01
2.633000e+00  -6.898787e-02  9.341855e-02  7.296631e-01  5.692413e-01  7.295908e-01  5.691846e-01  -2.810846e-02  1.223416e-01
2.633500e+00  -6.996184e-02  9.654274e-02  7.344183e-01  5.622496e-01  7.343455e-01  5.621936e-01  -2.857328e-02  1.253188e-01
2.634000e+00  -7.089519e-02  9.971356e-02  7.391039e-01  5.552001e-01  7.390306e-01  5.551448e-01  -2.900118e-02  1.283319e-01
2.634500e+00  -7.178675e-02  1.029306e-01  7.437188e-01  5.480935e-01  7.436451e-01  5.480390e-01  -2.939124e-02  1.313806e-01
2.635000e+00  -7.263538e-02  1.061934e-01  7.482621e-01  5.409305e-01  7.481879e-01  5.408766e-01  -2.974255e-02  1.344645e-01
2.635500e+00  -7.343993e-02  1.095016e-01  7.527327e-01  5.337117e-01  7.526581e-01  5.336585e-01  -3.005417e-02  1.375831e-01
2.636000e+00  -7.419923e-02  1.128546e-01  7.571297e-01  5.264377e-01  7.570546e-01  5.263853e-01  -3.032520e-02  1.407361e-01
2.636500e+00  -7.491215e-02  1.162520e-01  7.614519e-01  5.191095e-01  7.613764e-01  5.190578e-01  -3.055471e-02  1.439231e-01
2.637000e+00  -7.557753e-02  1.196932e-01  7.656985e-01  5.117276e-01  7.656226e-01  5.116766e-01  -3.074180e-02  1.471434e-01
2.637500e+00  -7.619423e-02  1.231776e-01  7.698683e-01  5.042928e-01  7.697920e-01  5.042426e-01  -3.088554e-02  1.503968e-01
2.638000e+00  -7.676110e-02  1.267046e-01  7.739604e-01  4.968060e-01  7.738837e-01  4.967565e-01  -3.098503e-02  1.536826e-01
2.638500e+00  -7.727700e-02  1.302736e-01  7.779738e-01  4.892680e-01  7.778967e-01  4.892193e-01  -3.103936e-02  1.570003e-01
2.639000e+00  -7.774081e-02  1.338840e-01  7.819075e-01  4.816796e-01  7.818300e-01  4.816316e-01  -3.104763e-02  1.603494e-01
2.639500e+00  -7.815139e-02  1.375351e-01  7.857606e-01  4.740417e-01  7.856827e-01  4.739944e-01  -3.100893e-02  1.637293e-01
2.640000e+00  -7.850762e-02  1.412261e-01  7.895320e-01  4.663551e-01  7.894537e-01  4.663086e-01  -3.092238e-02  1.671393e-01
2.640500e+00  -7.880838e-02  1.449564e-01  7.932207e-01  4.586208e-01  7.931421e-01  4.585751e-01  -3.078709e-02  1.705789e-01
2.641000e+00  -7.905257e-02  1.487251e-01  7.968259e-01  4.508397e-01  7.967469e-01  4.507948e-01  -3.060218e-02  1.740474e-01
2.641500e+00  -7.923909e-02  1.525315e-01  8.003465e-01  4.430128e-01  8.002672e-01  4.429687e-01  -3.036677e-02  1.775441e-01
2.642000e+00  -7.936684e-02  1.563748e-01  8.037817e-01  4.351411e-01  8.037020e-01  4.350978e-01  -3.008001e-02  1.810683e-01
2.642500e+00  -7.943476e-02  1.602540e-01  8.071304e-01  4.272256e-01  8.070504e-01  4.271830e-01  -2.974102e-02  1.846193e-01
2.643000e+00  -7.944177e-02  1.641683e-01  8.103919e-01  4.192673e-01  8.103115e-01  4.192255e-01  -2.934896e-02  1.881964e-01
2.643500e+00  -7.938680e-02  1.681168e-01  8.135651e-01  4.112673e-01  8.134844e-01  4.112263e-01  -2.890301e-02  1.917988e-01
2.644000e+00  -7.926883e-02  1.720986e-01  8.166492e-01  4.032267e-01  8.165682e-01  4.031865e-01  -2.840231e-02  1.954257e-01
2.644500e+00  -7.908682e-02  1.761126e-01  8.196433e-01  3.951465e-01  8.195620e-01  3.951071e-01  -2.784607e-02  1.990762e-01
2.645000e+00  -7.883975e-02  1.801579e-01  8.225465e-01  3.870280e-01  8.224649e-01  3.869894e-01  -2.723347e-02  2.027496e-01
2.645500e+00  -7.852662e-02  1.842335e-01  8.253580e-01  3.788723e-01  8.252762e-01  3.788345e-01  -2.656372e-02  2.064450e-01
2.646000e+00  -7.814644e-02  1.883383e-01  8.280770e-01  3.706805e-01  8.279949e-01  3.706435e-01  -2.583604e-02  2.101615e-01
2.646500e+00  -7.769825e-02  1.924711e-01  8.307026e-01  3.624539e-01  8.306202e-01  3.624177e-01  -2.504967e-02  2.138982e-01
2.647000e+00  -7.718110e-02  1.966310e-01  8.332340e-01  3.541937e-01  8.331514e-01  3.541584e-01  -2.420386e-02  2.176542e-01
2.647500e+00  -7.659405e-02  2.008167e-01  8.356705e-01  3.459012e-01  8.355876e-01  3.458667e-01  -2.329786e-02  2.214285e-01
2.648000e+00  -7.593618e-02  2.050271e-01  8.380112e-01  3.375776e-01  8.379281e-01  3.375439e-01  -2.233096e-02  2.252201e-01
2.648500e+00  -7.520662e-02  2.092610e-01  8.402555e-01  3.292243e-01  8.401722e-01  3.291914e-01  -2.130246e-02  2.290280e-01
2.649000e+00  -7.440448e-02  2.135172e-01  8.424026e-01  3.208425e-01  8.423190e-01  3.208105e-01  -2.021166e-02  2.328513e-01
2.649500e+00  -7.352892e-02  2.177943e-01  8.444518e-01  3.124337e-01  8.443680e-01  3.124025e-01  -1.905791e-02  2.366888e-01
2.650000e+00  -7.257911e-02  2.220912e-01  8.464024e-01  3.039991e-01  8.463185e-01  3.039687e-01  -1.784056e-02  2.405396e-01
2.650500e+00  -7.155424e-02  2.264066e-01  8.482538e-01  2.955402e-01  8.481697e-01  2.955107e-01  -1.655896e-02  2.444025e-01
2.651000e+00  -7.045354e-02  2.307391e-01  8.500054e-01  2.870584e-01  8.499210e-01  2.870298e-01  -1.521252e-02  2.482765e-01
2.651500e+00  -6.927626e-02  2.350873e-01  8.516564e-01  2.785552e-01  8.515719e-01  2.785273e-01  -1.380065e-02  2.521604e-01
2.652000e+00  -6.802167e-02  2.394499e-01  8.532064e-01  2.700319e-01  8.531218e-01  2.700049e-01  -1.232277e-02  2.560530e-01
2.652500e+00  -6.668907e-02  2.438255e-01  8.546548e-01  2.614901e-01  8.545700e-01  2.614639e-01  -1.077835e-02  2.599532e-01
2.653000e+00  -6.527779e-02  2.482126e-01  8.560009e-01  2.529312e-01  8.559160e-01  2.529059e-01  -9.166868e-03  2.638599e-01
2.653500e+00  -6.378719e-02  2.526099e-01  8.572445e-01  2.443568e-01  8.571594e-01  2.443324e-01  -7.487817e-03  2.677718e-01
2.654000e+00  -6.221665e-02  2.570158e-01  8.583848e-01  2.357684e-01  8.582996e-01  2.357448e-01  -5.740728e-03  2.716878e-01
2.654500e+00  -6.056559e-02  2.614288e-01  8.594216e-01  2.271675e-01  8.593363e-01  2.271448e-01  -3.925151e-03  2.756065e-01
2.655000e+00  -5.883346e-02  2.658475e-01  8.603543e-01  2.185557e-01  8.602689e-01  2.185339e-01  -2.040664e-03  2.795267e-01
2.655500e+00  -5.701975e-02  2.702703e-01  8.611826e-01  2.099347e-01  8.610971e-01  2.099136e-01  -8.686828e-05  2.834472e-01
2.656000e+00  -5.512395e-02  2.746956e-01  8.619061e-01  2.013059e-01  8.618206e-01  2.012857e-01  1.936606e-03  2.873666e-01
2.656500e+00  -5.314563e-02  2.791220e-01  8.625245e-01  1.926710e-01  8.624389e-01  1.926517e-01  4.030102e-03  2.912838e-01
2.657000e+00  -5.108435e-02  2.835477e-01  8.630375e-01  1.840317e-01  8.629518e-01  1.840132e-01  6.193935e-03  2.951973e-01
2.657500e+00  -4.893975e-02  2.879712e-01  8.634448e-01  1.753895e-01  8.633591e-01  1.753719e-01  8.428392e-03  2.991059e-01
2.658000e+00  -4.671146e-02  2.923909e-01  8.637461e-01  1.667462e-01  8.636604e-01  1.667294e-01  1.073373e-02  3.030081e-01
2.658500e+00  -4.439917e-02  2.968051e-01  8.639414e-01  1.581033e-01  8.638557e-01  1.580875e-01  1.311018e-02  3.069027e-01
2.659000e+00  -4.200261e-02  3.012122e-01  8.640303e-01  1.494627e-01  8.639446e-01  1.494477e-01  1.555794e-02  3.107884e-01
2.659500e+00  -3.952153e-02  3.056105e-01  8.640129e-01  1.408259e-01  8.639271e-01  1.408117e-01  1.807718e-02  3.146636e-01
2.660000e+00  -3.695575e-02  3.099984e-01  8.638888e-01  1.321947e-01  8.638031e-01  1.321814e-01  2.066803e-02  3.185271e-01
2.660500e+00  -3.430508e-02  3.143741e-01  8.636582e-01  1.235708e-01  8.635725e-01  1.235583e-01  2.333060e-02  3.223774e-01
2.661000e+00  -3.156941e-02  3.187360e-01  8.633210e-01  1.149558e-01  8.632353e-01  1.149442e-01  2.606497e-02  3.262132e-01
2.661500e+00  -2.874866e-02  3.230823e-01  8.628772e-01  1.063516e-01  8.627916e-01  1.063409e-01  2.887118e-02  3.300330e-01
2.662000e+00  -2.584277e-02  3.274114e-01  8.623268e-01  9.775981e-02  8.622412e-01  9.774992e-02  3.174923e-02  3.338354e-01
2.662500e+00  -2.285174e-02  3.317215e-01  8.616699e-01  8.918220e-02  8.615844e-01  8.917316e-02  3.469910e-02  3.376191e-01
2.663000e+00  -1.977561e-02  3.360109e-01  8.609067e-01  8.062051e-02  8.608212e-01  8.061232e-02  3.772075e-02  3.413825e-01
2.663500e+00  -1.661445e-02  3.402778e-01  8.600372e-01  7.207647e-02  8.599518e-01  7.206913e-02  4.081407e-02  3.451243e-01
2.664000e+00  -1.336839e-02  3.445206e-01  8.590617e-01  6.355183e-02  8.589764e-01  6.354534e-02  4.397894e-02  3.488431e-01
2.664500e+00  -1.003757e-02  3.487374e-01  8.579804e-01  5.504834e-02  8.578953e-01  5.504269e-02  4.721521e-02  3.525373e-01
2.665000e+00  -6.622194e-03  3.529265e-01  8.567936e-01  4.656773e-02  8.567086e-01  4.656292e-02  5.052269e-02  3.562056e-01
2.665500e+00  -3.122512e-03  3.570862e-01  8.555016e-01  3.811175e-02  8.554167e-01  3.810778e-02  5.390116e-02  3.598465e-01
2.666000e+00  4.611962e-04  3.612148e-01  8.541048e-01  2.968214e-02  8.540200e-01  2.967901e-02  5.735034e-02  3.634586e-01
2.666500e+00  4.128605e-03  3.653105e-01  8.526034e-01  2.128064e-02  8.525188e-01  2.127834e-02  6.086995e-02  3.670405e-01
2.667000e+00  7.879346e-03  3.693716e-01  8.509980e-01  1.290897e-02  8.509136e-01  1.290751e-02  6.445967e-02  3.705908e-01
2.667500e+00  1.171301e-02  3.733963e-01  8.492891e-01  4.568876e-03  8.492047e-01  4.568239e-03  6.811912e-02  3.741079e-01
2.668000e+00  1.562914e-02  3.773829e-01  8.474770e-01  -3.737933e-03  8.473928e-01  -3.737745e-03  7.184792e-02  3.775906e-01
2.668500e+00  1.962725e-02  3.813297e-01  8.455623e-01  -1.200974e-02  8.454784e-01  -1.200873e-02  7.564562e-02  3.810373e-01
2.669000e+00  2.370680e-02  3.852350e-01  8.435457e-01  -2.024484e-02  8.434620e-01  -2.024302e-02  7.951178e-02  3.844467e-01
2.669500e+00  2.786721e-02  3.890971e-01  8.414278e-01  -2.844154e-02  8.413442e-01  -2.843890e-02  8.344587e-02  3.878174e-01
2.670000e+00  3.210786e-02  3.929142e-01  8.392091e-01  -3.659816e-02  8.391258e-01  -3.659471e-02  8.744738e-02  3.911480e-01
2.670500e+00  3.642810e-02  3.966848e-01  8.368904e-01  -4.471302e-02  8.368073e-01  -4.470876e-02  9.151574e-02  3.944371e-01
2.671000e+00  4.082720e-02  4.004071e-01  8.344724e-01  -5.278446e-02  8.343896e-01  -5.277940e-02  9.565034e-02  3.976833e-01
2.671500e+00  4.530445e-02  4.040795e-01  8.319559e-01  -6.081084e-02  8.318733e-01  -6.080498e-02  9.985055e-02  4.008854e-01
2.672000e+00  4.985904e-02  4.077004e-01  8.293417e-01  -6.879053e-02  8.292593e-01  -6.878388e-02  1.041157e-01  4.040419e-01
2.672500e+00  5.449016e-02  4.112680e-01  8.266306e-01  -7.672192e-02  8.265485e-01  -7.671448e-02  1.084451e-01  4.071514e-01
2.673000e+00  5.919694e-02  4.147809e-01  8.238235e-01  -8.460341e-02  8.237417e-01  -8.459519e-02  1.128380e-01  4.102128e-01
2.673500e+00  6.397847e-02  4.182375e-01  8.209213e-01  -9.243342e-02  8.208398e-01  -9.242442e-02  1.172936e-01  4.132247e-01
2.674000e+00  6.883382e-02  4.216361e-01  8.179250e-01  -1.002104e-01  8.178438e-01  -1.002006e-01  1.218112e-01  4.161858e-01
2.674500e+00  7.376201e-02  4.249753e-01  8.148355e-01  -1.079328e-01  8.147546e-01  -1.079222e-01  1.263900e-01  4.190949e-01
2.675000e+00  7.876202e-02  4.282534e-01  8.116539e-01  -1.155991e-01  8.115733e-01  -1.155878e-01  1.310289e-01  4.219507e-01
2.675500e+00  8.383278e-02  4.314691e-01  8.083812e-01  -1.232078e-01  8.083009e-01  -1.231958e-01  1.357273e-01  4.247519e-01
2.676000e+00  8.897322e-02  4.346209e-01  8.050184e-01  -1.307575e-01  8.049385e-01  -1.307447e-01  1.404841e-01  4.274974e-01
2.676500e+00  9.418221e-02  4.377072e-01  8.015668e-01  -1.382466e-01  8.014872e-01  -1.382331e-01  1.452984e-01  4.301860e-01
2.677000e+00  9.945857e-02  4.407267e-01  7.980274e-01  -1.456739e-01  7.979482e-01  -1.456596e-01  1.501693e-01  4.328165e-01
2.677500e+00  1.048011e-01  4.436779e-01  7.944015e-01  -1.530378e-01  7.943226e-01  -1.530228e-01  1.550957e-01  4.353877e-01
2.678000e+00  1.102086e-01  4.465596e-01  7.906902e-01  -1.603370e-01  7.906117e-01  -1.603213e-01  1.600766e-01  4.378986e-01
2.678500e+00  1.156798e-01  4.493704e-01  7.868948e-01  -1.675703e-01  7.868166e-01  -1.675538e-01  1.651109e-01  4.403481e-01
2.679000e+00  1.212134e-01  4.521089e-01  7.830165e-01  -1.747361e-01  7.829387e-01  -1.747189e-01  1.701977e-01  4.427351e-01
2.679500e+00  1.268081e-01  4.547740e-01  7.790567e-01  -1.818334e-01  7.789793e-01  -1.818155e-01  1.753356e-01  4.450585e-01
2.680000e+00  1.324625e-01  4.573642e-01  7.750166e-01  -1.888607e-01  7.749396e-01  -1.888422e-01  1.805237e-01  4.473174e-01
2.680500e+00  1.381753e-01  4.598786e-01  7.708977e-01  -1.958170e-01  7.708211e-01  -1.957977e-01  1.857608e-01  4.495106e-01
2.681000e+00  1.439450e-01  4.623158e-01  7.667012e-01  -2.027010e-01  7.666251e-01  -2.026811e-01  1.910456e-01  4.516374e-01
2.681500e+00  1.497701e-01  4.646747e-01  7.624286e-01  -2.095116e-01  7.623529e-01  -2.094909e-01  1.963771e-01  4.536967e-01
2.682000e+00  1.556493e-01  4.669543e-01  7.580814e-01  -2.162476e-01  7.580060e-01  -2.162263e-01  2.017539e-01  4.556877e-01
2.682500e+00  1.615811e-01  4.691534e-01  7.536608e-01  -2.229079e-01  7.535860e-01  -2.228859e-01  2.071749e-01  4.576094e-01
2.683000e+00  1.675638e-01  4.712711e-01  7.491685e-01  -2.294915e-01  7.490941e-01  -2.294689e-01  2.126387e-01  4.594610e-01
2.683500e+00  1.735961e-01  4.733062e-01  7.446059e-01  -2.359974e-01  7.445319e-01  -2.359741e-01  2.181441e-01  4.612417e-01
2.684000e+00  1.796763e-01  4.752579e-01  7.399745e-01  -2.424246e-01  7.399010e-01  -2.424007e-01  2.236898e-01  4.629508e-01
2.684500e+00  1.858028e-01  4.771253e-01  7.352758e-01  -2.487721e-01  7.352028e-01  -2.487475e-01  2.292745e-01  4.645874e-01
2.685000e+00  1.919742e-01  4.789075e-01  7.305114e-01  -2.550390e-01  7.304389e-01  -2.550138e-01  2.348969e-01  4.661508e-01
2.685500e+00  1.981886e-01  4.806035e-01  7.256829e-01  -2.612244e-01  7.256108e-01  -2.611986e-01  2.405556e-01  4.676405e-01
2.686000e+00  2.044447e-01  4.822127e-01  7.207917e-01  -2.673275e-01  7.207201e-01  -2.673012e-01  2.462493e-01  4.690556e-01
2.686500e+00  2.107405e-01  4.837343e-01  7.158395e-01  -2.733476e-01  7.157684e-01  -2.733206e-01  2.519765e-01  4.703956e-01
2.687000e+00  2.170746e-01  4.851674e-01  7.108280e-01  -2.792837e-01  7.107573e-01  -2.792561e-01  2.577360e-01  4.716598e-01
2.687500e+00  2.234453e-01  4.865116e-01  7.057586e-01  -2.851352e-01  7.056885e-01  -2.851071e-01  2.635263e-01  4.728479e-01
2.688000e+00  2.298508e-01  4.877660e-01  7.006330e-01  -2.909015e-01  7.005634e-01  -2.908728e-01  2.693460e-01  4.739591e-01
2.688500e+00  2.362894e-01  4.889302e-01  6.954529e-01  -2.965818e-01  6.953838e-01  -2.965525e-01  2.751937e-01  4.749930e-01
2.689000e+00  2.427596e-01  4.900035e-01  6.902200e-01  -3.021755e-01  6.901514e-01  -3.021456e-01  2.810680e-01  4.759492e-01
2.689500e+00  2.492594e-01  4.909854e-01  6.849357e-01  -3.076821e-01  6.848677e-01  -3.076517e-01  2.869675e-01  4.768273e-01
2.690000e+00  2.557873e-01  4.918755e-01  6.796019e-01  -3.131010e-01  6.795344e-01  -3.130700e-01  2.928908e-01  4.776267e-01
2.690500e+00  2.623415e-01  4.926733e-01  6.742202e-01  -3.184317e-01  6.741532e-01  -3.184002e-01  2.988363e-01  4.783473e-01
2.691000e+00  2.689202e-01  4.933784e-01  6.687922e-01  -3.236738e-01  6.687257e-01  -3.236418e-01  3.048028e-01  4.789887e-01
2.691500e+00  2.755218e-01  4.939905e-01  6.633196e-01  -3.288268e-01  6.632537e-01  -3.287942e-01  3.107886e-01  4.795505e-01
2.692000e+00  2.821444e-01  4.945093e-01  6.578041e-01  -3.338903e-01  6.577387e-01  -3.338573e-01  3.167925e-01  4.800326e-01
2.692500e+00  2.887864e-01  4.949345e-01  6.522473e-01  -3.388640e-01  6.521825e-01  -3.388305e-01  3.228129e-01  4.804347e-01
2.693000e+00  2.954459e-01  4.952658e-01  6.466510e-01  -3.437477e-01  6.465867e-01  -3.437137e-01  3.288484e-01  4.807566e-01
2.693500e+00  3.021214e-01  4.955031e-01  6.410168e-01  -3.485410e-01  6.409531e-01  -3.485065e-01  3.348975e-01  4.809982e-01
2.694000e+00  3.088109e-01  4.956463e-01  6.353463e-01  -3.532436e-01  6.352832e-01  -3.532087e-01  3.409589e-01  4.811594e-01
2.694500e+00  3.155129e-01  4.956951e-01  6.296413e-01  -3.578554e-01  6.295787e-01  -3.578200e-01  3.470311e-01  4.812400e-01
2.695000e+00  3.222255e-01  4.956496e-01  6.239034e-01  -3.623763e-01  6.238414e-01  -3.623405e-01  3.531126e-01  4.812401e-01
2.695500e+00  3.289470e-01  4.955097e-01  6.181343e-01  -3.668061e-01  6.180729e-01  -3.667698e-01  3.592020e-01  4.811596e-01
2.696000e+00  3.356758e-01  4.952755e-01  6.123356e-01  -3.711447e-01  6.122747e-01  -3.711080e-01  3.652979e-01  4.809984e-01
2.696500e+00  3.424101e-01  4.949469e-01  6.065090e-01  -3.753921e-01  6.064487e-01  -3.753549e-01  3.713988e-01  4.807568e-01
2.697000e+00  3.491481e-01  4.945241e-01  6.006560e-01  -3.795482e-01  6.005963e-01  -3.795106e-01  3.775035e-01  4.804346e-01
2.697500e+00  3.558883e-01  4.940073e-01  5.947784e-01  -3.836131e-01  5.947193e-01  -3.835751e-01  3.836103e-01  4.800321e-01
2.698000e+00  3.626289e-01  4.933964e-01  5.888778e-01  -3.875868e-01  5.888192e-01  -3.875485e-01  3.897181e-01  4.795493e-01
2.698500e+00  3.693683e-01  4.926918e-01  5.829557e-01  -3.914695e-01  5.828977e-01  -3.914307e-01  3.958253e-01  4.789865e-01
2.699000e+00  3.761048e-01  4.918938e-01  5.770138e-01  -3.952612e-01  5.769564e-01  -3.952221e-01  4.019306e-01  4.783438e-01
2.699500e+00  3.828367e-01  4.910025e-01  5.710536e-01  -3.989621e-01  5.709969e-01  -3.989226e-01  4.080327e-01  4.776215e-01
2.700000e+00  3.895624e-01  4.900182e-01  5.650768e-01  -4.025724e-01  5.650206e-01  -4.025325e-01  4.141301e-01  4.768198e-01
2.700500e+00  3.962804e-01  4.889414e-01  5.590849e-01  -4.060923e-01  5.590293e-01  -4.060521e-01  4.202216e-01  4.759390e-01
2.701000e+00  4.029889e-01  4.877724e-01  5.530794e-01  -4.095221e-01  5.530244e-01  -4.094815e-01  4.263058e-01  4.749794e-01
2.701500e+00  4.096865e-01  4.865116e-01  5.470619e-01  -4.128620e-01  5.470075e-01  -4.128211e-01  4.323813e-01  4.739413e-01
2.702000e+00  4.163715e-01  4.851594e-01  5.410338e-01  -4.161124e-01  5.409800e-01  -4.160712e-01  4.384470e-01  4.728251e-01
2.702500e+00  4.230424e-01  4.837164e-01  5.349968e-01  -4.192735e-01  5.349436e-01  -4.192320e-01  4.445015e-01  4.716312e-01
2.703000e+00  4.296978e-01  4.821829e-01  5.289522e-01  -4.223459e-01  5.288996e-01  -4.223041e-01  4.505436e-01  4.703601e-01
2.703500e+00  4.363359e-01  4.805596e-01  5.229016e-01  -4.253298e-01  5.228496e-01  -4.252877e-01  4.565720e-01  4.690120e-01
2.704000e+00  4.429555e-01  4.788471e-01  5.168463e-01  -4.282258e-01  5.167949e-01  -4.281834e-01  4.625854e-01  4.675876e-01
2.704500e+00  4.495550e-01  4.770458e-01  5.107878e-01  -4.310342e-01  5.107370e-01  -4.309915e-01  4.685826e-01  4.660873e-01
2.705000e+00  4.561329e-01  4.751565e-01  5.047276e-01  -4.337555e-01  5.046774e-01  -4.337126e-01  4.745625e-01  4.645117e-01
2.705500e+00  4.626879e-01  4.731798e-01  4.986670e-01  -4.363903e-01  4.986174e-01  -4.363471e-01  4.805239e-01  4.628611e-01
2.706000e+00  4.692185e-01  4.711163e-01  4.926073e-01  -4.389391e-01  4.925583e-01  -4.388956e-01  4.864655e-01  4.611363e-01
2.706500e+00  4.757234e-01  4.689668e-01  4.865500e-01  -4.414024e-01  4.865016e-01  -4.413587e-01  4.923863e-01  4.593377e-01
2.707000e+00  4.822012e-01  4.667320e-01  4.804963e-01  -4.437808e-01  4.804485e-01  -4.437369e-01  4.982851e-01  4.574660e-01
2.707500e+00  4.886505e-01  4.644126e-01  4.744475e-01  -4.460750e-01  4.744003e-01  -4.460308e-01  5.041608e-01  4.555219e-01
2.708000e+00  4.950701e-01  4.620094e-01  4.684050e-01  -4.482854e-01  4.683584e-01  -4.482410e-01  5.100123e-01  4.535058e-01
2.708500e+00  5.014586e-01  4.595232e-01  4.623700e-01  -4.504129e-01  4.623240e-01  -4.503683e-01  5.158386e-01  4.514185e-01
2.709000e+00  5.078149e-01  4.569548e-01  4.563437e-01  -4.524580e-01  4.562983e-01  -4.524132e-01  5.216386e-01  4.492607e-01
2.709500e+00  5.141377e-01  4.543051e-01  4.503273e-01  -4.544214e-01  4.502825e-01  -4.543764e-01  5.274113e-01  4.470330e-01
2.710000e+00  5.204257e-01  4.515749e-01  4.443221e-01  -4.563039e-01  4.442779e-01  -4.562587e-01  5.331557e-01  4.447361e-01
2.710500e+00  5.266779e-01  4.487651e-01  4.383292e-01  -4.581061e-01  4.382856e-01  -4.580607e-01  5.388708e-01  4.423709e-01
2.711000e+00  5.328929e-01  4.458766e-01  4.323497e-01  -4.598288e-01  4.323067e-01  -4.597833e-01  5.445556e-01  4.399379e-01
2.711500e+00  5.390698e-01  4.429102e-01  4.263848e-01  -4.614728e-01  4.263424e-01  -4.614271e-01  5.502092e-01  4.374379e-01
2.712000e+00  5.452074e-01  4.398670e-01  4.204355e-01  -4.630388e-01  4.203937e-01  -4.629929e-01  5.558306e-01  4.348718e-01
2.712500e+00  5.513046e-01  4.367479e-01  4.145030e-01  -4.645276e-01  4.144618e-01  -4.644815e-01  5.614191e-01  4.322403e-01
2.713000e+00  5.573604e-01  4.335538e-01  4.085883e-01  -4.659399e-01  4.085476e-01  -4.658938e-01  5.669736e-01  4.295441e-01
2.713500e+00  5.633738e-01  4.302857e-01  4.026924e-01  -4.672767e-01  4.026523e-01  -4.672304e-01  5.724935e-01  4.267842e-01
2.714000e+00  5.693437e-01  4.269445e-01  3.968162e-01  -4.685388e-01  3.967767e-01  -4.684923e-01  5.779777e-01  4.239612e-01
2.714500e+00  5.752692e-01  4.235314e-01  3.909609e-01  -4.697269e-01  3.909219e-01  -4.696803e-01  5.834255e-01  4.210760e-01
2.715000e+00  5.811494e-01  4.200472e-01  3.851272e-01  -4.708419e-01  3.850889e-01  -4.707952e-01  5.888362e-01  4.181294e-01
2.715500e+00  5.869833e-01  4.164931e-01  3.793162e-01  -4.718847e-01  3.792785e-01  -4.718380e-01  5.942089e-01  4.151224e-01
2.716000e+00  5.927701e-01  4.128700e-01  3.735288e-01  -4.728562e-01  3.734916e-01  -4.728093e-01  5.995430e-01  4.120556e-01
2.716500e+00  5.985089e-01  4.091791e-01  3.677657e-01  -4.737572e-01  3.677291e-01  -4.737103e-01  6.048377e-01  4.089301e-01
2.717000e+00  6.041988e-01  4.054212e-01  3.620280e-01  -4.745887e-01  3.619919e-01  -4.745416e-01  6.100922e-01  4.057465e-01
2.717500e+00  6.098391e-01  4.015976e-01  3.563163e-01  -4.753514e-01  3.562809e-01  -4.753043e-01  6.153060e-01  4.025059e-01
2.718000e+00  6.154290e-01  3.977092e-01  3.506316e-01  -4.760464e-01  3.505967e-01  -4.759992e-01  6.204784e-01  3.992091e-01
2.718500e+00  6.209677e-01  3.937572e-01  3.449745e-01  -4.766745e-01  3.449401e-01  -4.766273e-01  6.256087e-01  3.958570e-01
2.719000e+00  6.264545e-01  3.897426e-01  3.393458e-01  -4.772367e-01  3.393120e-01  -4.771894e-01  6.306964e-01  3.924504e-01
2.719500e+00  6.318887e-01  3.856665e-01  3.337463e-01  -4.777338e-01  3.337131e-01  -4.776865e-01  6.357408e-01  3.889902e-01
2.720000e+00  6.372696e-01  3.815300e-01  3.281767e-01  -4.781668e-01  3.281440e-01  -4.781194e-01  6.407414e-01  3.854774e-01
2.720500e+00  6.425966e-01  3.773341e-01  3.226376e-01  -4.785367e-01  3.226054e-01  -4.784893e-01  6.456976e-01  3.819129e-01
2.721000e+00  6.478691e-01  3.730801e-01  3.171297e-01  -4.788443e-01  3.170981e-01  -4.787968e-01  6.506090e-01  3.782974e-01
2.721500e+00  6.530864e-01  3.687689e-01  3.116536e-01  -4.790906e-01  3.116226e-01  -4.790431e-01  6.554750e-01  3.746320e-01
2.722000e+00  6.582481e-01  3.644016e-01  3.062100e-01  -4.792765e-01  3.061795e-01  -4.792290e-01  6.602951e-01  3.709176e-01
2.722500e+00  6.633535e-01  3.599795e-01  3.007994e-01  -4.794030e-01  3.007695e-01  -4.793555e-01  6.650688e-01  3.671550e-01
2.723000e+00  6.684022e-01  3.555035e-01  2.954225e-01  -4.794711e-01  2.953930e-01  -4.794235e-01  6.697958e-01  3.633451e-01
2.723500e+00  6.733935e-01  3.509748e-01  2.900796e-01  -4.794816e-01  2.900507e-01  -4.794340e-01  6.744756e-01  3.594889e-01
2.724000e+00  6.783272e-01  3.463945e-01  2.847715e-01  -4.794354e-01  2.847431e-01  -4.793879e-01  6.791078e-01  3.555872e-01
2.724500e+00  6.832027e-01  3.417636e-01  2.794985e-01  -4.793337e-01  2.794706e-01  -4.792861e-01  6.836921e-01  3.516410e-01
2.725000e+00  6.880196e-01  3.370833e-01  2.742611e-01  -4.791772e-01  2.742338e-01  -4.791297e-01  6.882280e-01  3.476512e-01
2.725500e+00  6.927775e-01  3.323547e-01  2.690598e-01  -4.789669e-01  2.690330e-01  -4.789194e-01  6.927152e-01  3.436186e-01
2.726000e+00  6.974760e-01  3.275788e-01  2.638951e-01  -4.787038e-01  2.638688e-01  -4.786563e-01  6.971535e-01  3.395442e-01
2.726500e+00  7.021148e-01  3.227568e-01  2.587673e-01  -4.783888e-01  2.587415e-01  -4.783414e-01  7.015424e-01  3.354288e-01
2.727000e+00  7.066935e-01  3.178897e-01  2.536769e-01  -4.780229e-01  2.536516e-01  -4.779755e-01  7.058817e-01  3.312734e-01
2.727500e+00  7.112119e-01  3.129787e-01  2.486241e-01  -4.776069e-01  2.485993e-01  -4.775595e-01  7.101712e-01  3.270789e-01
2.728000e+00  7.156696e-01  3.080247e-01  2.436095e-01  -4.771418e-01  2.435852e-01  -4.770945e-01  7.144106e-01  3.228461e-01
2.728500e+00  7.200664e-01  3.030290e-01  2.386332e-01  -4.766285e-01  2.386094e-01  -4.765813e-01  7.185997e-01  3.185759e-01
2.729000e+00  7.244021e-01  2.979925e-01  2.336956e-01  -4.760680e-01  2.336723e-01  -4.760208e-01  7.227382e-01  3.142692e-01
2.729500e+00  7.286763e-01  2.929162e-01  2.287971e-01  -4.754612e-01  2.287743e-01  -4.754140e-01  7.268259e-01  3.099269e-01
2.730000e+00  7.328890e-01  2.878014e-01  2.239378e-01  -4.748089e-01  2.239155e-01  -4.747618e-01  7.308627e-01  3.055498e-01
2.730500e+00  7.370400e-01  2.826490e-01  2.191181e-01  -4.741121e-01  2.190963e-01  -4.740651e-01  7.348484e-01  3.011388e-01
2.731000e+00  7.411289e-01  2.774600e-01  2.143382e-01  -4.733717e-01  2.143168e-01  -4.733247e-01  7.387829e-01  2.966948e-01
2.731500e+00  7.451559e-01  2.722356e-01  2.095983e-01  -4.725886e-01  2.095774e-01  -4.725417e-01  7.426660e-01  2.922186e-01
2.732000e+00  7.491206e-01  2.669767e-01  2.048986e-01  -4.717636e-01  2.048781e-01  -4.717168e-01  7.464976e-01  2.877111e-01
2.732500e+00  7.530230e-01  2.616843e-01  2.002393e-01  -4.708977e-01  2.002193e-01  -4.708510e-01  7.502776e-01  2.831731e-01
2.733000e+00  7.568630e-01  2.563595e-01  1.956206e-01  -4.699917e-01  1.956010e-01  -4.699451e-01  7.540059e-01  2.786054e-01
2.733500e+00  7.606406e-01  2.510033e-01  1.910426e-01  -4.690466e-01  1.910235e-01  -4.690000e-01  7.576825e-01  2.740090e-01
2.734000e+00  7.643557e-01  2.456167e-01  1.865054e-01  -4.680631e-01  1.864868e-01  -4.680166e-01  7.613072e-01  2.693845e-01
2.734500e+00  7.680082e-01  2.402007e-01  1.820093e-01  -4.670421e-01  1.819912e-01  -4.669958e-01  7.648801e-01  2.647329e-01
2.735000e+00  7.715981e-01  2.347562e-01  1.775543e-01  -4.659845e-01  1.775366e-01  -4.659383e-01  7.684011e-01  2.600548e-01
2.735500e+00  7.751254e-01  2.292843e-01  1.731405e-01  -4.648911e-01  1.731232e-01  -4.648450e-01  7.718701e-01  2.553512e-01
2.736000e+00  7.785902e-01  2.237858e-01  1.687680e-01  -4.637628e-01  1.687511e-01  -4.637167e-01  7.752873e-01  2.506229e-01
2.736500e+00  7.819925e-01  2.182618e-01  1.644368e-01  -4.626003e-01  1.644204e-01  -4.625544e-01  7.786525e-01  2.458705e-01
2.737000e+00  7.853322e-01  2.127132e-01  1.601471e-01  -4.614045e-01  1.601311e-01  -4.613587e-01  7.819659e-01  2.410949e-01
2.737500e+00  7.886095e-01  2.071409e-01  1.558987e-01  -4.601762e-01  1.558832e-01  -4.601306e-01  7.852273e-01  2.362969e-01
2.738000e+00  7.918245e-01  2.015458e-01  1.516919e-01  -4.589163e-01  1.516767e-01  -4.588707e-01  7.884370e-01  2.314772e-01
2.738500e+00  7.949771e-01  1.959290e-01  1.475265e-01  -4.576254e-01  1.475118e-01  -4.575800e-01  7.915949e-01  2.266365e-01
2.739000e+00  7.980676e-01  1.902912e-01  1.434026e-01  -4.563044e-01  1.433883e-01  -4.562591e-01  7.947011e-01  2.217757e-01
2.739500e+00  8.010960e-01  1.846333e-01  1.393202e-01  -4.549541e-01  1.393063e-01  -4.549089e-01  7.977557e-01  2.168955e-01
2.740000e+00  8.040625e-01  1.789563e-01  1.352792e-01  -4.535752e-01  1.352657e-01  -4.535301e-01  8.007588e-01  2.119965e-01
2.740500e+00  8.069671e-01  1.732611e-01  1.312797e-01  -4.521684e-01  1.312665e-01  -4.521236e-01  8.037104e-01  2.070796e-01
2.741000e+00  8.098101e-01  1.675484e-01  1.273215e-01  -4.507346e-01  1.273087e-01  -4.506899e-01  8.066107e-01  2.021453e-01
2.741500e+00  8.125916e-01  1.618192e-01  1.234046e-01  -4.492745e-01  1.233923e-01  -4.492299e-01  8.094597e-01  1.971945e-01
2.742000e+00  8.153117e-01  1.560742e-01  1.195290e-01  -4.477887e-01  1.195170e-01  -4.477443e-01  8.122577e-01  1.922278e-01
2.742500e+00  8.179707e-01  1.503144e-01  1.156945e-01  -4.462781e-01  1.156829e-01  -4.462338e-01  8.150048e-01  1.872459e-01
2.743000e+00  8.205688e-01  1.445405e-01  1.119012e-01  -4.447433e-01  1.118899e-01  -4.446991e-01  8.177010e-01  1.822495e-01
2.743500e+00  8.231061e-01  1.387533e-01  1.081488e-01  -4.431850e-01  1.081379e-01  -4.431410e-01  8.203466e-01  1.772393e-01
2.744000e+00  8.255829e-01  1.329537e-01  1.044373e-01  -4.416039e-01  1.044268e-01  -4.415601e-01  8.229416e-01  1.722158e-01
2.744500e+00  8.279993e-01  1.271424e-01  1.007665e-01  -4.400008e-01  1.007564e-01  -4.399571e-01  8.254864e-01  1.671798e-01
2.745000e+00  8.303557e-01  1.213202e-01  9.713646e-02  -4.383762e-01  9.712673e-02  -4.383327e-01  8.279809e-01  1.621319e-01
2.745500e+00  8.326522e-01  1.154878e-01  9.354690e-02  -4.367308e-01  9.353752e-02  -4.366875e-01  8.304255e-01  1.570728e-01
2.746000e+00  8.348892e-01  1.096461e-01  8.999771e-02  -4.350654e-01  8.998868e-02  -4.350222e-01  8.328204e-01  1.520029e-01
2.746500e+00  8.370668e-01  1.037957e-01  8.648875e-02  -4.333805e-01  8.648007e-02  -4.333375e-01  8.351656e-01  1.469231e-01
2.747000e+00  8.391853e-01  9.793740e-02  8.301986e-02  -4.316767e-01  8.301153e-02  -4.316339e-01  8.374615e-01  1.418338e-01
2.747500e+00  8.412451e-01  9.207193e-02  7.959089e-02  -4.299548e-01  7.958290e-02  -4.299121e-01  8.397082e-01  1.367357e-01
2.748000e+00  8.432463e-01  8.619996e-02  7.620167e-02  -4.282153e-01  7.619401e-02  -4.281728e-01  8.419059e-01  1.316294e-01
2.748500e+00  8.451894e-01  8.032222e-02  7.285202e-02  -4.264587e-01  7.284469e-02  -4.264164e-01  8.440549e-01  1.265153e-01
2.749000e+00  8.470744e-01  7.443937e-02  6.954176e-02  -4.246858e-01  6.953476e-02  -4.246437e-01  8.461554e-01  1.213942e-01
2.749500e+00  8.489019e-01  6.855211e-02  6.627070e-02  -4.228972e-01  6.626402e-02  -4.228552e-01  8.482076e-01  1.162666e-01
2.750000e+00  8.506721e-01  6.266108e-02  6.303864e-02  -4.210932e-01  6.303229e-02  -4.210514e-01  8.502118e-01  1.111329e-01
2.750500e+00  8.523852e-01  5.676695e-02  5.984540e-02  -4.192747e-01  5.983937e-02  -4.192331e-01  8.521682e-01  1.059938e-01
2.751000e+00  8.540417e-01  5.087036e-02  5.669076e-02  -4.174420e-01  5.668504e-02  -4.174006e-01  8.540770e-01  1.008498e-01
2.751500e+00  8.556418e-01  4.497194e-02  5.357452e-02  -4.155958e-01  5.356911e-02  -4.155546e-01  8.559385e-01  9.570146e-02
2.752000e+00  8.571859e-01  3.907232e-02  5.049645e-02  -4.137366e-01  5.049135e-02  -4.136955e-01  8.577530e-01  9.054920e-02
2.752500e+00  8.586743e-01  3.317209e-02  4.745635e-02  -4.118649e-01  4.745155e-02  -4.118241e-01  8.595208e-01  8.539358e-02
2.753000e+00  8.601074e-01  2.727187e-02  4.445398e-02  -4.099813e-01  4.444948e-02  -4.099406e-01  8.612420e-01  8.023509e-02
2.753500e+00  8.614854e-01  2.137223e-02  4.148912e-02  -4.080862e-01  4.148492e-02  -4.080457e-01  8.629169e-01  7.507423e-02
2.754000e+00  8.628088e-01  1.547377e-02  3.856154e-02  -4.061802e-01  3.855763e-02  -4.061399e-01  8.645459e-01  6.991148e-02
2.754500e+00  8.640779e-01  9.577051e-03  3.567100e-02  -4.042638e-01  3.566737e-02  -4.042237e-01  8.661292e-01  6.474730e-02
2.755000e+00  8.652930e-01  3.682626e-03  3.281725e-02  -4.023374e-01  3.281391e-02  -4.022975e-01  8.676671e-01  5.958217e-02
2.755500e+00  8.664546e-01  -2.208955e-03  3.000007e-02  -4.004015e-01  2.999700e-02  -4.003618e-01  8.691599e-01  5.441654e-02
2.756000e+00  8.675629e-01  -8.097153e-03  2.721919e-02  -3.984567e-01  2.721640e-02  -3.984171e-01  8.706078e-01  4.925086e-02
2.756500e+00  8.686184e-01  -1.398144e-02  2.447437e-02  -3.965032e-01  2.447185e-02  -3.964639e-01  8.720111e-01  4.408557e-02
2.757000e+00  8.696214e-01  -1.986130e-02  2.176535e-02  -3.945417e-01  2.176311e-02  -3.945025e-01  8.733701e-01  3.892109e-02
2.757500e+00  8.705723e-01  -2.573623e-02  1.909189e-02  -3.925725e-01  1.908991e-02  -3.925336e-01  8.746852e-01  3.375786e-02
2.758000e+00  8.714714e-01  -3.160573e-02  1.645372e-02  -3.905961e-01  1.645200e-02  -3.905573e-01  8.759566e-01  2.859629e-02
2.758500e+00  8.723192e-01  -3.746930e-02  1.385058e-02  -3.886129e-01  1.384912e-02  -3.885743e-01  8.771845e-01  2.343678e-02
2.759000e+00  8.731160e-01  -4.332648e-02  1.128221e-02  -3.866233e-01  1.128101e-02  -3.865849e-01  8.783694e-01  1.827974e-02
2.759500e+00  8.738623e-01  -4.917678e-02  8.748343e-03  -3.846278e-01  8.747392e-03  -3.845896e-01  8.795115e-01  1.312556e-02
2.760000e+00  8.745583e-01  -5.501977e-02  6.248714e-03  -3.826266e-01  6.248011e-03  -3.825886e-01  8.806110e-01  7.974622e-03
2.760500e+00  8.752044e-01  -6.085497e-02  3.783054e-03  -3.806203e-01  3.782596e-03  -3.805825e-01  8.816684e-01  2.827304e-03
2.761000e+00  8.758012e-01  -6.668196e-02  1.351091e-03  -3.786092e-01  1.350875e-03  -3.785716e-01  8.826839e-01  -2.316024e-03
2.761500e+00  8.763489e-01  -7.250030e-02  -1.047445e-03  -3.765937e-01  -1.047422e-03  -3.765563e-01  8.836578e-01  -7.455000e-03
2.762000e+00  8.768479e-01  -7.830956e-02  -3.412828e-03  -3.745741e-01  -3.412570e-03  -3.745369e-01  8.845904e-01  -1.258927e-02
2.762500e+00  8.772987e-01  -8.410935e-02  -5.745332e-03  -3.725508e-01  -5.744842e-03  -3.725138e-01  8.854820e-01  -1.771849e-02
2.763000e+00  8.777016e-01  -8.989924e-02  -8.045233e-03  -3.705242e-01  -8.044514e-03  -3.704874e-01  8.863330e-01  -2.284231e-02
2.763500e+00  8.780570e-01  -9.567884e-02  -1.031281e-02  -3.684946e-01  -1.031186e-02  -3.684580e-01  8.871436e-01  -2.796040e-02
2.764000e+00  8.783653e-01  -1.014478e-01  -1.254833e-02  -3.664623e-01  -1.254717e-02  -3.664259e-01  8.879142e-01  -3.307244e-02
2.764500e+00  8.786269e-01  -1.072057e-01  -1.475209e-02  -3.644277e-01  -1.475070e-02  -3.643916e-01  8.886450e-01  -3.817811e-02
2.765000e+00  8.788422e-01  -1.129521e-01  -1.692435e-02  -3.623912e-01  -1.692274e-02  -3.623552e-01  8.893364e-01  -4.327709e-02
2.765500e+00  8.790116e-01  -1.186868e-01  -1.906539e-02  -3.603529e-01  -1.906358e-02  -3.603171e-01  8.899887e-01  -4.836908e-02
2.766000e+00  8.791355e-01  -1.244093e-01  -2.117550e-02  -3.583133e-01  -2.117348e-02  -3.582777e-01  8.906021e-01  -5.345378e-02
2.766500e+00  8.792143e-01  -1.301194e-01  -2.325496e-02  -3.562726e-01  -2.325273e-02  -3.562372e-01  8.911771e-01  -5.853090e-02
2.767000e+00  8.792483e-01  -1.358166e-01  -2.530404e-02  -3.542311e-01  -2.530161e-02  -3.541960e-01  8.917139e-01  -6.360015e-02
2.767500e+00  8.792381e-01  -1.415006e-01  -2.732303e-02  -3.521892e-01  -2.732039e-02  -3.521542e-01  8.922128e-01  -6.866124e-02
2.768000e+00  8.791839e-01  -1.471712e-01  -2.931220e-02  -3.501470e-01  -2.930937e-02  -3.501123e-01  8.926741e-01  -7.371391e-02
2.768500e+00  8.790861e-01  -1.528280e-01  -3.127184e-02  -3.481050e-01  -3.126881e-02  -3.480704e-01  8.930982e-01  -7.875790e-02
2.769000e+00  8.789452e-01  -1.584707e-01  -3.320222e-02  -3.460632e-01  -3.319900e-02  -3.460289e-01  8.934853e-01  -8.379292e-02
2.769500e+00  8.787615e-01  -1.640990e-01  -3.510363e-02  -3.440221e-01  -3.510022e-02  -3.439880e-01  8.938358e-01  -8.881874e-02
2.770000e+00  8.785355e-01  -1.697126e-01  -3.697634e-02  -3.419819e-01  -3.697274e-02  -3.419479e-01  8.941500e-01  -9.383511e-02
2.770500e+00  8.782675e-01  -1.753112e-01  -3.882063e-02  -3.399427e-01  -3.881685e-02  -3.399090e-01  8.944281e-01  -9.884177e-02
2.771000e+00  8.779579e-01  -1.808946e-01  -4.063679e-02  -3.379050e-01  -4.063282e-02  -3.378714e-01  8.946705e-01  -1.038385e-01
2.771500e+00  8.776071e-01  -1.864624e-01  -4.242507e-02  -3.358688e-01  -4.242094e-02  -3.358354e-01  8.948775e-01  -1.088250e-01
2.772000e+00  8.772156e-01  -1.920145e-01  -4.418578e-02  -3.338345e-01  -4.418146e-02  -3.338013e-01  8.950494e-01  -1.138012e-01
2.772500e+00  8.767836e-01  -1.975505e-01  -4.591917e-02  -3.318022e-01  -4.591468e-02  -3.317692e-01  8.951865e-01  -1.187667e-01
2.773000e+00  8.763115e-01  -2.030702e-01  -4.762553e-02  -3.297722e-01  -4.762087e-02  -3.297394e-01  8.952892e-01  -1.237214e-01
2.773500e+00  8.757999e-01  -2.085733e-01  -4.930513e-02  -3.277447e-01  -4.930031e-02  -3.277122e-01  8.953576e-01  -1.286651e-01
2.774000e+00  8.752489e-01  -2.140597e-01  -5.095824e-02  -3.257199e-01  -5.095325e-02  -3.256876e-01  8.953921e-01  -1.335975e-01
2.774500e+00  8.746591e-01  -2.195290e-01  -5.258514e-02  -3.236981e-01  -5.257999e-02  -3.236659e-01  8.953931e-01  -1.385184e-01
2.775000e+00  8.740308e-01  -2.249811e-01  -5.418610e-02  -3.216793e-01  -5.418079e-02  -3.216473e-01  8.953608e-01  -1.434277e-01
2.775500e+00  8.733644e-01  -2.304158e-01  -5.576138e-02  -3.196638e-01  -5.575591e-02  -3.196321e-01  8.952955e-01  -1.483252e-01
2.776000e+00  8.726602e-01  -2.358327e-01  -5.731126e-02  -3.176519e-01  -5.730564e-02  -3.176203e-01  8.951975e-01  -1.532106e-01
2.776500e+00  8.719186e-01  -2.412318e-01  -5.883600e-02  -3.156436e-01  -5.883023e-02  -3.156123e-01  8.950671e-01  -1.580839e-01
2.777000e+00  8.711401e-01  -2.466128e-01  -6.033588e-02  -3.136392e-01  -6.032996e-02  -3.136081e-01  8.949046e-01  -1.629447e-01
2.777500e+00  8.703250e-01  -2.519755e-01  -6.181116e-02  -3.116388e-01  -6.180509e-02  -3.116079e-01  8.947103e-01  -1.677930e-01
2.778000e+00  8.694736e-01  -2.573197e-01  -6.326209e-02  -3.096427e-01  -6.325588e-02  -3.096119e-01  8.944845e-01  -1.726286e-01
2.778500e+00  8.685863e-01  -2.626453e-01  -6.468895e-02  -3.076509e-01  -6.468259e-02  -3.076203e-01  8.942275e-01  -1.774513e-01
2.779000e+00  8.676635e-01  -2.679520e-01  -6.609200e-02  -3.056636e-01  -6.608550e-02  -3.056332e-01  8.939396e-01  -1.822610e-01
2.779500e+00  8.667056e-01  -2.732397e-01  -6.747149e-02  -3.036810e-01  -6.746485e-02  -3.036508e-01  8.936210e-01  -1.870575e-01
2.780000e+00  8.657129e-01  -2.785083e-01  -6.882768e-02  -3.017033e-01  -6.882091e-02  -3.016733e-01  8.932721e-01  -1.918406e-01
2.780500e+00  8.646858e-01  -2.837575e-01  -7.016084e-02  -2.997305e-01  -7.015394e-02  -2.997007e-01  8.928931e-01  -1.966103e-01
2.781000e+00  8.636246e-01  -2.889872e-01  -7.147121e-02  -2.977629e-01  -7.146418e-02  -2.977333e-01  8.924844e-01  -2.013663e-01
2.781500e+00  8.625297e-01  -2.941972e-01  -7.275905e-02  -2.958005e-01  -7.275189e-02  -2.957711e-01  8.920461e-01  -2.061086e-01
2.782000e+00  8.614015e-01  -2.993874e-01  -7.402462e-02  -2.938435e-01  -7.401733e-02  -2.938143e-01  8.915786e-01  -2.108369e-01
2.782500e+00  8.602403e-01  -3.045577e-01  -7.526816e-02  -2.918921e-01  -7.526075e-02  -2.918631e-01  8.910822e-01  -2.155513e-01
2.783000e+00  8.590464e-01  -3.097079e-01  -7.648992e-02  -2.899463e-01  -7.648238e-02  -2.899175e-01  8.905571e-01  -2.202515e-01
2.783500e+00  8.578203e-01  -3.148378e-01  -7.769015e-02  -2.880062e-01  -7.768250e-02  -2.879776e-01  8.900037e-01  -2.249374e-01
2.784000e+00  8.565622e-01  -3.199475e-01  -7.886909e-02  -2.860721e-01  -7.886132e-02  -2.860437e-01  8.894221e-01  -2.296089e-01
2.784500e+00  8.552725e-01  -3.250366e-01  -8.002700e-02  -2.841440e-01  -8.001911e-02  -2.841158e-01  8.888127e-01  -2.342660e-01
2.785000e+00  8.539516e-01  -3.301051e-01  -8.116410e-02  -2.822220e-01  -8.115611e-02  -2.821940e-01  8.881757e-01  -2.389084e-01
2.785500e+00  8.525997e-01  -3.351529e-01  -8.228065e-02  -2.803063e-01  -8.227254e-02  -2.802784e-01  8.875114e-01  -2.435361e-01
2.786000e+00  8.512173e-01  -3.401799e-01  -8.337688e-02  -2.783968e-01  -8.336866e-02  -2.783692e-01  8.868201e-01  -2.481489e-01
2.786500e+00  8.498046e-01  -3.451859e-01  -8.445302e-02  -2.764938e-01  -8.444470e-02  -2.764664e-01  8.861020e-01  -2.527469e-01
2.787000e+00  8.483621e-01  -3.501709e-01  -8.550932e-02  -2.745974e-01  -8.550089e-02  -2.745701e-01  8.853575e-01  -2.573298e-01
2.787500e+00  8.468899e-01  -3.551347e-01  -8.654601e-02  -2.727075e-01  -8.653747e-02  -2.726804e-01  8.845866e-01  -2.618976e-01
2.788000e+00  8.453886e-01  -3.600773e-01  -8.756331e-02  -2.708244e-01  -8.755467e-02  -2.707975e-01  8.837899e-01  -2.664502e-01
2.788500e+00  8.438583e-01  -3.649986e-01  -8.856145e-02  -2.689481e-01  -8.855272e-02  -2.689214e-01  8.829673e-01  -2.709874e-01
2.789000e+00  8.422994e-01  -3.698984e-01  -8.954067e-02  -2.670786e-01  -8.953184e-02  -2.670521e-01  8.821194e-01  -2.755093e-01
2.789500e+00  8.407122e-01  -3.747768e-01  -9.050119e-02  -2.652162e-01  -9.049227e-02  -2.651898e-01  8.812462e-01  -2.800158e-01
2.790000e+00  8.390972e-01  -3.796335e-01  -9.144324e-02  -2.633607e-01  -9.143422e-02  -2.633346e-01  8.803481e-01  -2.845067e-01
2.790500e+00  8.374544e-01  -3.844685e-01  -9.236703e-02  -2.615124e-01  -9.235792e-02  -2.614864e-01  8.794252e-01  -2.889820e-01
2.791000e+00  8.357844e-01  -3.892818e-01  -9.327279e-02  -2.596713e-01  -9.326359e-02  -2.596455e-01  8.784779e-01  -2.934416e-01
2.791500e+00  8.340874e-01  -3.940733e-01  -9.416073e-02  -2.578374e-01  -9.415144e-02  -2.578118e-01  8.775064e-01  -2.978854e-01
2.792000e+00  8.323637e-01  -3.988429e-01  -9.503108e-02  -2.560109e-01  -9.502170e-02  -2.559855e-01  8.765109e-01  -3.023134e-01
2.792500e+00  8.306136e-01  -4.035906e-01  -9.588404e-02  -2.541918e-01  -9.587458e-02  -2.541665e-01  8.754918e-01  -3.067255e-01
2.793000e+00  8.288374e-01  -4.083162e-01  -9.671983e-02  -2.523801e-01  -9.671028e-02  -2.523550e-01  8.744491e-01  -3.111216e-01
2.793500e+00  8.270354e-01  -4.130198e-01  -9.753866e-02  -2.505759e-01  -9.752903e-02  -2.505510e-01  8.733832e-01  -3.155017e-01
2.794000e+00  8.252080e-01  -4.177012e-01  -9.834074e-02  -2.487793e-01  -9.833103e-02  -2.487546e-01  8.722943e-01  -3.198658e-01
2.794500e+00  8.233555e-01  -4.223604e-01  -9.912628e-02  -2.469903e-01  -9.911649e-02  -2.469657e-01  8.711827e-01  -3.242137e-01
2.795000e+00  8.214780e-01  -4.269974e-01  -9.989547e-02  -2.452090e-01  -9.988561e-02  -2.451846e-01  8.700485e-01  -3.285454e-01
2.795500e+00  8.195760e-01  -4.316122e-01  -1.006485e-01  -2.434354e-01  -1.006386e-01  -2.434112e-01  8.688920e-01  -3.328609e-01
2.796000e+00  8.176497e-01  -4.362046e-01  -1.013857e-01  -2.416695e-01  -1.013756e-01  -2.416455e-01  8.677135e-01  -3.371601e-01
2.796500e+00  8.156994e-01  -4.407746e-01  -1.021071e-01  -2.399115e-01  -1.020970e-01  -2.398877e-01  8.665131e-01  -3.414429e-01
2.797000e+00  8.137253e-01  -4.453222e-01  -1.028129e-01  -2.381613e-01  -1.028028e-01  -2.381377e-01  8.652911e-01  -3.457094e-01
2.797500e+00  8.117279e-01  -4.498474e-01  -1.035034e-01  -2.364191e-01  -1.034932e-01  -2.363956e-01  8.640478e-01  -3.499595e-01
2.798000e+00  8.097073e-01  -4.543502e-01  -1.041788e-01  -2.346847e-01  -1.041685e-01  -2.346614e-01  8.627833e-01  -3.541931e-01
2.798500e+00  8.076639e-01  -4.588304e-01  -1.048392e-01  -2.329583e-01  -1.048288e-01  -2.329352e-01  8.614978e-01  -3.584103e-01
2.799000e+00  8.055979e-01  -4.632881e-01  -1.054848e-01  -2.312399e-01  -1.054744e-01  -2.312170e-01  8.601916e-01  -3.626109e-01
2.799500e+00  8.035096e-01  -4.677232e-01  -1.061159e-01  -2.295296e-01  -1.061054e-01  -2.295068e-01  8.588650e-01  -3.667949e-01
2.800000e+00  8.013992e-01  -4.721357e-01  -1.067326e-01  -2.278273e-01  -1.067220e-01  -2.278047e-01  8.575180e-01  -3.709623e-01
2.800500e+00  7.992671e-01  -4.765256e-01  -1.073351e-01  -2.261331e-01  -1.073245e-01  -2.261106e-01  8.561510e-01  -3.751132e-01
2.801000e+00  7.971135e-01  -4.808929e-01  -1.079235e-01  -2.244470e-01  -1.079129e-01  -2.244247e-01  8.547641e-01  -3.792473e-01
2.801500e+00  7.949386e-01  -4.852376e-01  -1.084981e-01  -2.227691e-01  -1.084874e-01  -2.227470e-01  8.533576e-01  -3.833648e-01
2.802000e+00  7.927428e-01  -4.895596e-01  -1.090591e-01  -2.210993e-01  -1.090483e-01  -2.210774e-01  8.519317e-01  -3.874656e-01
2.802500e+00  7.905264e-01  -4.938589e-01  -1.096065e-01  -2.194377e-01  -1.095957e-01  -2.194159e-01  8.504865e-01  -3.915496e-01
2.803000e+00  7.882894e-01  -4.981356e-01  -1.101407e-01  -2.177843e-01  -1.101298e-01  -2.177627e-01  8.490223e-01  -3.956169e-01
2.803500e+00  7.860323e-01  -5.023895e-01  -1.106617e-01  -2.161392e-01  -1.106507e-01  -2.161177e-01  8.475393e-01  -3.996674e-01
2.804000e+00  7.837553e-01  -5.066208e-01  -1.111697e-01  -2.145022e-01  -1.111587e-01  -2.144809e-01  8.460377e-01  -4.037012e-01
2.804500e+00  7.814586e-01  -5.108293e-01  -1.116650e-01  -2.128736e-01  -1.116539e-01  -2.128524e-01  8.445176e-01  -4.077181e-01
2.805000e+00  7.791424e-01  -5.150152e-01  -1.121476e-01  -2.112531e-01  -1.121365e-01  -2.112321e-01  8.429794e-01  -4.117182e-01
2.805500e+00  7.768071e-01  -5.191783e-01  -1.126178e-01  -2.096410e-01  -1.126066e-01  -2.096202e-01  8.414231e-01  -4.157015e-01
2.806000e+00  7.744529e-01  -5.233188e-01  -1.130757e-01  -2.080371e-01  -1.130645e-01  -2.080165e-01  8.398490e-01  -4.196679e-01
2.806500e+00  7.720799e-01  -5.274365e-01  -1.135214e-01  -2.064416e-01  -1.135102e-01  -2.064211e-01  8.382572e-01  -4.236175e-01
2.807000e+00  7.696886e-01  -5.315316e-01  -1.139552e-01  -2.048543e-01  -1.139439e-01  -2.048339e-01  8.366480e-01  -4.275502e-01
2.807500e+00  7.672790e-01  -5.356039e-01  -1.143771e-01  -2.032753e-01  -1.143658e-01  -2.032551e-01  8.350216e-01  -4.314661e-01
2.808000e+00  7.648515e-01  -5.396536e-01  -1.147874e-01  -2.017047e-01  -1.147761e-01  -2.016846e-01  8.333781e-01  -4.353651e-01
2.808500e+00  7.624062e-01  -5.436806e-01  -1.151862e-01  -2.001424e-01  -1.151748e-01  -2.001225e-01  8.317177e-01  -4.392472e-01
2.809000e+00  7.599435e-01  -5.476849e-01  -1.155737e-01  -1.985883e-01  -1.155623e-01  -1.985686e-01  8.300406e-01  -4.431124e-01
2.809500e+00  7.574635e-01  -5.516666e-01  -1.159500e-01  -1.970426e-01  -1.159385e-01  -1.970230e-01  8.283471e-01  -4.469607e-01
2.810000e+00  7.549664e-01  -5.556256e-01  -1.163152e-01  -1.955052e-01  -1.163037e-01  -1.954858e-01  8.266372e-01  -4.507921e-01
2.810500e+00  7.524526e-01  -5.595620e-01  -1.166695e-01  -1.939762e-01  -1.166580e-01  -1.939569e-01  8.249111e-01  -4.546066e-01
2.811000e+00  7.499221e-01  -5.634758e-01  -1.170132e-01  -1.924554e-01  -1.170016e-01  -1.924363e-01  8.231691e-01  -4.584042e-01
2.811500e+00  7.473753e-01  -5.673670e-01  -1.173462e-01  -1.909430e-01  -1.173346e-01  -1.909240e-01  8.214113e-01  -4.621850e-01
2.812000e+00  7.448124e-01  -5.712356e-01  -1.176687e-01  -1.894388e-01  -1.176571e-01  -1.894200e-01  8.196379e-01  -4.659488e-01
2.812500e+00  7.422336e-01  -5.750817e-01  -1.179810e-01  -1.879430e-01  -1.179693e-01  -1.879243e-01  8.178490e-01  -4.696958e-01
2.813000e+00  7.396390e-01  -5.789053e-01  -1.182831e-01  -1.864554e-01  -1.182714e-01  -1.864369e-01  8.160448e-01  -4.734259e-01
2.813500e+00  7.370290e-01  -5.827063e-01  -1.185751e-01  -1.849761e-01  -1.185634e-01  -1.849577e-01  8.142256e-01  -4.771391e-01
2.814000e+00  7.344037e-01  -5.864849e-01  -1.188573e-01  -1.835051e-01  -1.188455e-01  -1.834869e-01  8.123914e-01  -4.808355e-01
2.814500e+00  7.317633e-01  -5.902410e-01  -1.191297e-01  -1.820424e-01  -1.191179e-01  -1.820243e-01  8.105425e-01  -4.845150e-01
2.815000e+00  7.291081e-01  -5.939747e-01  -1.193925e-01  -1.805879e-01  -1.193807e-01  -1.805700e-01  8.086790e-01  -4.881776e-01
2.815500e+00  7.264382e-01  -5.976859e-01  -1.196458e-01  -1.791417e-01  -1.196340e-01  -1.791239e-01  8.068010e-01  -4.918234e-01
2.816000e+00  7.237539e-01  -6.013748e-01  -1.198898e-01  -1.777037e-01  -1.198779e-01  -1.776860e-01  8.049088e-01  -4.954524e-01
2.816500e+00  7.210553e-01  -6.050414e-01  -1.201245e-01  -1.762739e-01  -1.201127e-01  -1.762564e-01  8.030024e-01  -4.990646e-01
2.817000e+00  7.183428e-01  -6.086857e-01  -1.203502e-01  -1.748523e-01  -1.203383e-01  -1.748349e-01  8.010821e-01  -5.026600e-01
2.817500e+00  7.156163e-01  -6.123076e-01  -1.205669e-01  -1.734389e-01  -1.205550e-01  -1.734217e-01  7.991480e-01  -5.062385e-01
2.818000e+00  7.128763e-01  -6.159074e-01  -1.207748e-01  -1.720337e-01  -1.207628e-01  -1.720166e-01  7.972003e-01  -5.098003e-01
2.818500e+00  7.101228e-01  -6.194849e-01  -1.209739e-01  -1.706366e-01  -1.209619e-01  -1.706197e-01  7.952391e-01  -5.133454e-01
2.819000e+00  7.073560e-01  -6.230402e-01  -1.211645e-01  -1.692477e-01  -1.211525e-01  -1.692309e-01  7.932646e-01  -5.168737e-01
2.819500e+00  7.045762e-01  -6.265734e-01  -1.213465e-01  -1.678669e-01  -1.213345e-01  -1.678502e-01  7.912769e-01  -5.203853e-01
2.820000e+00  7.017835e-01  -6.300845e-01  -1.215203e-01  -1.664942e-01  -1.215083e-01  -1.664777e-01  7.892762e-01  -5.238801e-01
2.820500e+00  6.989782e-01  -6.335735e-01  -1.216858e-01  -1.651296e-01  -1.216738e-01  -1.651132e-01  7.872626e-01  -5.273583e-01
2.821000e+00  6.961603e-01  -6.370405e-01  -1.218432e-01  -1.637731e-01  -1.218311e-01  -1.637568e-01  7.852363e-01  -5.308198e-01
2.821500e+00  6.933302e-01  -6.404855e-01  -1.219926e-01  -1.624246e-01  -1.219805e-01  -1.624084e-01  7.831974e-01  -5.342646e-01
2.822000e+00  6.904879e-01  -6.439086e-01  -1.221341e-01  -1.610841e-01  -1.221220e-01  -1.610681e-01  7.811460e-01  -5.376929e-01
2.822500e+00  6.876337e-01  -6.473097e-01  -1.222679e-01  -1.597517e-01  -1.222558e-01  -1.597358e-01  7.790824e-01  -5.411044e-01
2.823000e+00  6.847677e-01  -6.506890e-01  -1.223940e-01  -1.584272e-01  -1.223819e-01  -1.584114e-01  7.770067e-01  -5.444995e-01
2.823500e+00  6.818901e-01  -6.540465e-01  -1.225126e-01  -1.571107e-01  -1.225004e-01  -1.570951e-01  7.749189e-01  -5.478779e-01
2.824000e+00  6.790011e-01  -6.573821e-01  -1.226237e-01  -1.558021e-01  -1.226116e-01  -1.557866e-01  7.728193e-01  -5.512398e-01
2.824500e+00  6.761009e-01  -6.606961e-01  -1.227275e-01  -1.545015e-01  -1.227154e-01  -1.544861e-01  7.707080e-01  -5.545851e-01
2.825000e+00  6.731896e-01  -6.639883e-01  -1.228241e-01  -1.532087e-01  -1.228119e-01  -1.531934e-01  7.685851e-01  -5.579140e-01
2.825500e+00  6.702675e-01  -6.672589e-01  -1.229136e-01  -1.519238e-01  -1.229014e-01  -1.519087e-01  7.664507e-01  -5.612264e-01
2.826000e+00  6.673346e-01  -6.705079e-01  -1.229960e-01  -1.506467e-01  -1.229839e-01  -1.506318e-01  7.643050e-01  -5.645223e-01
2.826500e+00  6.643911e-01  -6.737354e-01  -1.230716e-01  -1.493775e-01  -1.230594e-01  -1.493626e-01  7.621482e-01  -5.678018e-01
2.827000e+00  6.614373e-01  -6.769413e-01  -1.231404e-01  -1.481161e-01  -1.231282e-01  -1.481013e-01  7.599803e-01  -5.710649e-01
2.827500e+00  6.584733e-01  -6.801258e-01  -1.232024e-01  -1.468624e-01  -1.231902e-01  -1.468478e-01  7.578014e-01  -5.743116e-01
2.828000e+00  6.554992e-01  -6.832889e-01  -1.232579e-01  -1.456164e-01  -1.232457e-01  -1.456020e-01  7.556118e-01  -5.775420e-01
2.828500e+00  6.525152e-01  -6.864306e-01  -1.233068e-01  -1.443782e-01  -1.232946e-01  -1.443638e-01  7.534116e-01  -5.807560e-01
2.829000e+00  6.495214e-01  -6.895509e-01  -1.233493e-01  -1.431477e-01  -1.233371e-01  -1.431334e-01  7.512008e-01  -5.839538e-01
2.829500e+00  6.465181e-01  -6.926501e-01  -1.233856e-01  -1.419248e-01  -1.233734e-01  -1.419107e-01  7.489796e-01  -5.871353e-01
2.830000e+00  6.435054e-01  -6.957280e-01  -1.234156e-01  -1.407095e-01  -1.234034e-01  -1.406955e-01  7.467482e-01  -5.903005e-01
2.830500e+00  6.404834e-01  -6.987847e-01  -1.234395e-01  -1.395019e-01  -1.234272e-01  -1.394880e-01  7.445066e-01  -5.934496e-01
2.831000e+00  6.374523e-01  -7.018204e-01  -1.234573e-01  -1.383018e-01  -1.234451e-01  -1.382881e-01  7.422549e-01  -5.965824e-01
2.831500e+00  6.344122e-01  -7.048350e-01  -1.234692e-01  -1.371093e-01  -1.234570e-01  -1.370957e-01  7.399934e-01  -5.996991e-01
2.832000e+00  6.313634e-01  -7.078285e-01  -1.234753e-01  -1.359243e-01  -1.234631e-01  -1.359108e-01  7.377220e-01  -6.027997e-01
2.832500e+00  6.283058e-01  -7.108011e-01  -1.234756e-01  -1.347468e-01  -1.234634e-01  -1.347334e-01  7.354411e-01  -6.058842e-01
2.833000e+00  6.252398e-01  -7.137529e-01  -1.234702e-01  -1.335767e-01  -1.234580e-01  -1.335634e-01  7.331505e-01  -6.089527e-01
2.833500e+00  6.221654e-01  -7.166837e-01  -1.234593e-01  -1.324141e-01  -1.234471e-01  -1.324009e-01  7.308505e-01  -6.120051e-01
2.834000e+00  6.190828e-01  -7.195938e-01  -1.234428e-01  -1.312588e-01  -1.234306e-01  -1.312458e-01  7.285413e-01  -6.150415e-01
2.834500e+00  6.159921e-01  -7.224831e-01  -1.234210e-01  -1.301110e-01  -1.234087e-01  -1.300980e-01  7.262228e-01  -6.180619e-01
2.835000e+00  6.128935e-01  -7.253518e-01  -1.233938e-01  -1.289704e-01  -1.233815e-01  -1.289576e-01  7.238952e-01  -6.210664e-01
2.835500e+00  6.097871e-01  -7.281998e-01  -1.233613e-01  -1.278372e-01  -1.233491e-01  -1.278245e-01  7.215587e-01  -6.240550e-01
2.836000e+00  6.066730e-01  -7.310272e-01  -1.233237e-01  -1.267112e-01  -1.233115e-01  -1.266986e-01  7.192133e-01  -6.270278e-01
2.836500e+00  6.035514e-01  -7.338341e-01  -1.232810e-01  -1.255925e-01  -1.232688e-01  -1.255800e-01  7.168592e-01  -6.299847e-01
2.837000e+00  6.004225e-01  -7.366206e-01  -1.232333e-01  -1.244811e-01  -1.232211e-01  -1.244687e-01  7.144964e-01  -6.329258e-01
2.837500e+00  5.972863e-01  -7.393866e-01  -1.231807e-01  -1.233767e-01  -1.231685e-01  -1.233645e-01  7.121251e-01  -6.358511e-01
2.838000e+00  5.941430e-01  -7.421323e-01  -1.231232e-01  -1.222796e-01  -1.231110e-01  -1.222674e-01  7.097454e-01  -6.387607e-01
2.838500e+00  5.909928e-01  -7.448577e-01  -1.230609e-01  -1.211895e-01  -1.230487e-01  -1.211775e-01  7.073574e-01  -6.416546e-01
2.839000e+00  5.878357e-01  -7.475629e-01  -1.229940e-01  -1.201066e-01  -1.229818e-01  -1.200946e-01  7.049611e-01  -6.445328e-01
2.839500e+00  5.846719e-01  -7.502479e-01  -1.229224e-01  -1.190307e-01  -1.229102e-01  -1.190188e-01  7.025568e-01  -6.473954e-01
2.840000e+00  5.815015e-01  -7.529127e-01  -1.228462e-01  -1.179618e-01  -1.228341e-01  -1.179501e-01  7.001445e-01  -6.502423e-01
2.840500e+00  5.783247e-01  -7.555575e-01  -1.227656e-01  -1.168999e-01  -1.227535e-01  -1.168883e-01  6.977243e-01  -6.530737e-01
2.841000e+00  5.751415e-01  -7.581823e-01  -1.226806e-01  -1.158450e-01  -1.226685e-01  -1.158335e-01  6.952962e-01  -6.558896e-01
2.841500e+00  5.719521e-01  -7.607872e-01  -1.225913e-01  -1.147970e-01  -1.225791e-01  -1.147856e-01  6.928605e-01  -6.586900e-01
2.842000e+00  5.687567e-01  -7.633721e-01  -1.224977e-01  -1.137559e-01  -1.224855e-01  -1.137446e-01  6.904172e-01  -6.614749e-01
2.842500e+00  5.655553e-01  -7.659372e-01  -1.223999e-01  -1.127217e-01  -1.223877e-01  -1.127104e-01  6.879665e-01  -6.642444e-01
2.843000e+00  5.623481e-01  -7.684826e-01  -1.222979e-01  -1.116942e-01  -1.222858e-01  -1.116831e-01  6.855083e-01  -6.669985e-01
2.843500e+00  5.591352e-01  -7.710082e-01  -1.221920e-01  -1.106736e-01  -1.221798e-01  -1.106626e-01  6.830428e-01  -6.697373e-01
2.844000e+00  5.559167e-01  -7.735142e-01  -1.220820e-01  -1.096598e-01  -1.220699e-01  -1.096488e-01  6.805702e-01  -6.724607e-01
2.844500e+00  5.526927e-01  -7.760005e-01  -1.219681e-01  -1.086526e-01  -1.219560e-01  -1.086418e-01  6.780904e-01  -6.751689e-01
2.845000e+00  5.494634e-01  -7.784674e-01  -1.218503e-01  -1.076522e-01  -1.218382e-01  -1.076415e-01  6.756036e-01  -6.778618e-01
2.845500e+00  5.462288e-01  -7.809147e-01  -1.217288e-01  -1.066584e-01  -1.217167e-01  -1.066478e-01  6.731099e-01  -6.805394e-01
2.846000e+00  5.429891e-01  -7.833427e-01  -1.216035e-01  -1.056713e-01  -1.215914e-01  -1.056607e-01  6.706094e-01  -6.832020e-01
2.846500e+00  5.397444e-01  -7.857513e-01  -1.214745e-01  -1.046907e-01  -1.214625e-01  -1.046803e-01  6.681022e-01  -6.858493e-01
2.847000e+00  5.364948e-01  -7.881406e-01  -1.213420e-01  -1.037167e-01  -1.213299e-01  -1.037064e-01  6.655884e-01  -6.884816e-01
2.847500e+00  5.332405e-01  -7.905106e-01  -1.212059e-01  -1.027493e-01  -1.211938e-01  -1.027391e-01  6.630680e-01  -6.910988e-01
2.848000e+00  5.299814e-01  -7.928615e-01  -1.210663e-01  -1.017883e-01  -1.210543e-01  -1.017782e-01  6.605411e-01  -6.937010e-01
2.848500e+00  5.267178e-01  -7.951933e-01  -1.209232e-01  -1.008338e-01  -1.209112e-01  -1.008238e-01  6.580079e-01  -6.962882e-01
2.849000e+00  5.234497e-01  -7.975060e-01  -1.207768e-01  -9.988577e-02  -1.207649e-01  -9.987583e-02  6.554684e-01  -6.988605e-01
2.849500e+00  5.201773e-01  -7.997997e-01  -1.206271e-01  -9.894411e-02  -1.206152e-01  -9.893426e-02  6.529227e-01  -7.014178e-01
2.850000e+00  5.169007e-01  -8.020745e-01  -1.204742e-01  -9.800881e-02  -1.204622e-01  -9.799905e-02  6.503709e-01  -7.039603e-01
2.850500e+00  5.136199e-01  -8.043304e-01  -1.203180e-01  -9.707984e-02  -1.203061e-01  -9.707017e-02  6.478131e-01  -7.064879e-01
2.851000e+00  5.103351e-01  -8.065675e-01  -1.201587e-01  -9.615717e-02  -1.201468e-01  -9.614759e-02  6.452493e-01  -7.090007e-01
2.851500e+00  5.070463e-01  -8.087859e-01  -1.199964e-01  -9.524076e-02  -1.199845e-01  -9.523128e-02  6.426798e-01  -7.114987e-01
2.852000e+00  5.037538e-01  -8.109855e-01  -1.198309e-01  -9.433058e-02  -1.198191e-01  -9.432119e-02  6.401044e-01  -7.139820e-01
2.852500e+00  5.004575e-01  -8.131665e-01  -1.196626e-01  -9.342660e-02  -1.196507e-01  -9.341730e-02  6.375234e-01  -7.164507e-01
2.853000e+00  4.971576e-01  -8.153290e-01  -1.194912e-01  -9.252879e-02  -1.194794e-01  -9.251958e-02  6.349368e-01  -7.189046e-01
2.853500e+00  4.938541e-01  -8.174729e-01  -1.193170e-01  -9.163711e-02  -1.193052e-01  -9.162798e-02  6.323446e-01  -7.213440e-01
2.854000e+00  4.905473e-01  -8.195984e-01  -1.191400e-01  -9.075153e-02  -1.191282e-01  -9.074249e-02  6.297470e-01  -7.237688e-01
2.854500e+00  4.872371e-01  -8.217056e-01  -1.189603e-01  -8.987201e-02  -1.189485e-01  -8.986306e-02  6.271441e-01  -7.261790e-01
2.855000e+00  4.839237e-01  -8.237944e-01  -1.187778e-01  -8.899852e-02  -1.187660e-01  -8.898966e-02  6.245359e-01  -7.285748e-01
2.855500e+00  4.806071e-01  -8.258649e-01  -1.185926e-01  -8.813103e-02  -1.185808e-01  -8.812226e-02  6.219225e-01  -7.309560e-01
2.856000e+00  4.772875e-01  -8.279172e-01  -1.184048e-01  -8.726951e-02  -1.183931e-01  -8.726082e-02  6.193039e-01  -7.333229e-01
2.856500e+00  4.739650e-01  -8.299514e-01  -1.182144e-01  -8.641393e-02  -1.182027e-01  -8.640532e-02  6.166804e-01  -7.356753e-01
2.857000e+00  4.706396e-01  -8.319675e-01  -1.180215e-01  -8.556424e-02  -1.180098e-01  -8.555572e-02  6.140518e-01  -7.380135e-01
2.857500e+00  4.673114e-01  -8.339656e-01  -1.178262e-01  -8.472042e-02  -1.178145e-01  -8.471198e-02  6.114184e-01  -7.403373e-01
2.858000e+00  4.639806e-01  -8.359457e-01  -1.176284e-01  -8.388244e-02  -1.176167e-01  -8.387408e-02  6.087801e-01  -7.426468e-01
2.858500e+00  4.606472e-01  -8.379080e-01  -1.174282e-01  -8.305026e-02  -1.174165e-01  -8.304199e-02  6.061371e-01  -7.449421e-01
2.859000e+00  4.573113e-01  -8.398524e-01  -1.172257e-01  -8.222385e-02  -1.172140e-01  -8.221566e-02  6.034895e-01  -7.472232e-01
2.859500e+00  4.539730e-01  -8.417790e-01  -1.170208e-01  -8.140317e-02  -1.170092e-01  -8.139506e-02  6.008372e-01  -7.494901e-01
2.860000e+00  4.506324e-01  -8.436879e-01  -1.168137e-01  -8.058820e-02  -1.168022e-01  -8.058018e-02  5.981804e-01  -7.517429e-01
2.860500e+00  4.472895e-01  -8.455792e-01  -1.166045e-01  -7.977891e-02  -1.165929e-01  -7.977096e-02  5.955192e-01  -7.539817e-01
2.861000e+00  4.439445e-01  -8.474528e-01  -1.163930e-01  -7.897525e-02  -1.163815e-01  -7.896738e-02  5.928536e-01  -7.562064e-01
2.861500e+00  4.405975e-01  -8.493090e-01  -1.161794e-01  -7.817720e-02  -1.161679e-01  -7.816941e-02  5.901837e-01  -7.584170e-01
2.862000e+00  4.372485e-01  -8.511477e-01  -1.159638e-01  -7.738473e-02  -1.159523e-01  -7.737702e-02  5.875095e-01  -7.606138e-01
2.862500e+00  4.338975e-01  -8.529689e-01  -1.157461e-01  -7.659780e-02  -1.157346e-01  -7.659017e-02  5.848312e-01  -7.627965e-01
2.863000e+00  4.305448e-01  -8.547729e-01  -1.155264e-01  -7.581638e-02  -1.155149e-01  -7.580883e-02  5.821488e-01  -7.649654e-01
2.863500e+00  4.271904e-01  -8.565595e-01  -1.153047e-01  -7.504044e-02  -1.152933e-01  -7.503297e-02  5.794623e-01  -7.671205e-01
2.864000e+00  4.238343e-01  -8.583289e-01  -1.150811e-01  -7.426995e-02  -1.150697e-01  -7.426255e-02  5.767719e-01  -7.692617e-01
2.864500e+00  4.204766e-01  -8.600812e-01  -1.148556e-01  -7.350488e-02  -1.148443e-01  -7.349756e-02  5.740776e-01  -7.713892e-01
2.865000e+00  4.171175e-01  -8.618163e-01  -1.146283e-01  -7.274519e-02  -1.146170e-01  -7.273794e-02  5.713794e-01  -7.735029e-01
2.865500e+00  4.137570e-01  -8.635345e-01  -1.143992e-01  -7.199085e-02  -1.143879e-01  -7.198368e-02  5.686775e-01  -7.756029e-01
2.866000e+00  4.103951e-01  -8.652356e-01  -1.141683e-01  -7.124184e-02  -1.141570e-01  -7.123474e-02  5.659719e-01  -7.776892e-01
2.866500e+00  4.070320e-01  -8.669198e-01  -1.139357e-01  -7.049812e-02  -1.139244e-01  -7.049109e-02  5.632627e-01  -7.797620e-01
2.867000e+00  4.036677e-01  -8.685872e-01  -1.137014e-01  -6.975965e-02  -1.136901e-01  -6.975270e-02  5.605498e-01  -7.818211e-01
2.867500e+00  4.003023e-01  -8.702377e-01  -1.134655e-01  -6.902642e-02  -1.134542e-01  -6.901954e-02  5.578335e-01  -7.838667e-01
2.868000e+00  3.969359e-01  -8.718715e-01  -1.132279e-01  -6.829838e-02  -1.132166e-01  -6.829157e-02  5.551137e-01  -7.858988e-01
2.868500e+00  3.935685e-01  -8.734887e-01  -1.129887e-01  -6.757550e-02  -1.129775e-01  -6.756877e-02  5.523906e-01  -7.879174e-01
2.869000e+00  3.902002e-01  -8.750892e-01  -1.127480e-01  -6.685776e-02  -1.127368e-01  -6.685110e-02  5.496641e-01  -7.899226e-01
2.869500e+00  3.868312e-01  -8.766732e-01  -1.125057e-01  -6.614513e-02  -1.124946e-01  -6.613854e-02  5.469343e-01  -7.919143e-01
2.870000e+00  3.834614e-01  -8.782406e-01  -1.122620e-01  -6.543757e-02  -1.122509e-01  -6.543105e-02  5.442014e-01  -7.938928e-01
2.870500e+00  3.800910e-01  -8.797917e-01  -1.120168e-01  -6.473506e-02  -1.120057e-01  -6.472860e-02  5.414653e-01  -7.958579e-01
2.871000e+00  3.767200e-01  -8.813263e-01  -1.117702e-01  -6.403755e-02  -1.117591e-01  -6.403117e-02  5.387262e-01  -7.978097e-01
2.871500e+00  3.733484e-01  -8.828447e-01  -1.115222e-01  -6.334503e-02  -1.115111e-01  -6.333872e-02  5.359840e-01  -7.997482e-01
2.872000e+00  3.699764e-01  -8.843467e-01  -1.112729e-01  -6.265747e-02  -1.112618e-01  -6.265122e-02  5.332389e-01  -8.016736e-01
2.872500e+00  3.666040e-01  -8.858326e-01  -1.110222e-01  -6.197482e-02  -1.110112e-01  -6.196865e-02  5.304908e-01  -8.035858e-01
2.873000e+00  3.632314e-01  -8.873024e-01  -1.107702e-01  -6.129707e-02  -1.107593e-01  -6.129096e-02  5.277400e-01  -8.054849e-01
2.873500e+00  3.598584e-01  -8.887560e-01  -1.105170e-01  -6.062419e-02  -1.105061e-01  -6.061814e-02  5.249863e-01  -8.073708e-01
2.874000e+00  3.564853e-01  -8.901937e-01  -1.102626e-01  -5.995613e-02  -1.102516e-01  -5.995015e-02  5.222299e-01  -8.092437e-01
2.874500e+00  3.531121e-01  -8.916154e-01  -1.100069e-01  -5.929288e-02  -1.099960e-01  -5.928697e-02  5.194708e-01  -8.111036e-01
2.875000e+00  3.497388e-01  -8.930212e-01  -1.097501e-01  -5.863441e-02  -1.097392e-01  -5.862856e-02  5.167092e-01  -8.129505e-01
2.875500e+00  3.463656e-01  -8.944111e-01  -1.094921e-01  -5.798068e-02  -1.094812e-01  -5.797490e-02  5.139449e-01  -8.147845e-01
2.876000e+00  3.429924e-01  -8.957853e-01  -1.092330e-01  -5.733166e-02  -1.092222e-01  -5.732595e-02  5.111782e-01  -8.166055e-01
2.876500e+00  3.396194e-01  -8.971437e-01  -1.089728e-01  -5.668734e-02  -1.089620e-01  -5.668168e-02  5.084090e-01  -8.184137e-01
2.877000e+00  3.362466e-01  -8.984865e-01  -1.087116e-01  -5.604767e-02  -1.087008e-01  -5.604208e-02  5.056374e-01  -8.202091e-01
2.877500e+00  3.328740e-01  -8.998137e-01  -1.084493e-01  -5.541263e-02  -1.084386e-01  -5.540710e-02  5.028634e-01  -8.219916e-01
2.878000e+00  3.295018e-01  -9.011253e-01  -1.081861e-01  -5.478219e-02  -1.081754e-01  -5.477673e-02  5.000872e-01  -8.237614e-01
2.878500e+00  3.261300e-01  -9.024215e-01  -1.079218e-01  -5.415633e-02  -1.079111e-01  -5.415092e-02  4.973087e-01  -8.255185e-01
2.879000e+00  3.227586e-01  -9.037022e-01  -1.076566e-01  -5.353500e-02  -1.076460e-01  -5.352966e-02  4.945280e-01  -8.272629e-01
2.879500e+00  3.193878e-01  -9.049675e-01  -1.073905e-01  -5.291820e-02  -1.073799e-01  -5.291292e-02  4.917452e-01  -8.289947e-01
2.880000e+00  3.160175e-01  -9.062176e-01  -1.071235e-01  -5.230588e-02  -1.071129e-01  -5.230066e-02  4.889604e-01  -8.307138e-01
2.880500e+00  3.126479e-01  -9.074523e-01  -1.068556e-01  -5.169802e-02  -1.068450e-01  -5.169286e-02  4.861735e-01  -8.324204e-01
2.881000e+00  3.092789e-01  -9.086719e-01  -1.065869e-01  -5.109459e-02  -1.065763e-01  -5.108949e-02  4.833846e-01  -8.341144e-01
2.881500e+00  3.059107e-01  -9.098764e-01  -1.063173e-01  -5.049557e-02  -1.063067e-01  -5.049053e-02  4.805937e-01  -8.357959e-01
2.882000e+00  3.025433e-01  -9.110657e-01  -1.060469e-01  -4.990092e-02  -1.060364e-01  -4.989594e-02  4.778010e-01  -8.374650e-01
2.882500e+00  2.991768e-01  -9.122400e-01  -1.057758e-01  -4.931062e-02  -1.057653e-01  -4.930570e-02  4.750065e-01  -8.391216e-01
2.883000e+00  2.958112e-01  -9.133994e-01  -1.055039e-01  -4.872464e-02  -1.054934e-01  -4.871978e-02  4.722102e-01  -8.407658e-01
2.883500e+00  2.924465e-01  -9.145439e-01  -1.052312e-01  -4.814295e-02  -1.052208e-01  -4.813815e-02  4.694121e-01  -8.423977e-01
2.884000e+00  2.890829e-01  -9.156735e-01  -1.049579e-01  -4.756553e-02  -1.049475e-01  -4.756079e-02  4.666124e-01  -8.440173e-01
2.884500e+00  2.857204e-01  -9.167883e-01  -1.046839e-01  -4.699236e-02  -1.046735e-01  -4.698767e-02  4.638110e-01  -8.456246e-01
2.885000e+00  2.823590e-01  -9.178884e-01  -1.044092e-01  -4.642339e-02  -1.043988e-01  -4.641876e-02  4.610080e-01  -8.472196e-01
2.885500e+00  2.789988e-01  -9.189738e-01  -1.041338e-01  -4.585861e-02  -1.041235e-01  -4.585403e-02  4.582035e-01  -8.488025e-01
2.886000e+00  2.756398e-01  -9.200445e-01  -1.038579e-01  -4.529799e-02  -1.038476e-01  -4.529347e-02  4.553975e-01  -8.503731e-01
2.886500e+00  2.722822e-01  -9.211008e-01  -1.035813e-01  -4.474151e-02  -1.035711e-01  -4.473704e-02  4.525900e-01  -8.519316e-01
2.887000e+00  2.689259e-01  -9.221424e-01  -1.033042e-01  -4.418913e-02  -1.032940e-01  -4.418472e-02  4.497811e-01  -8.534781e-01
2.887500e+00  2.655709e-01  -9.231697e-01  -1.030265e-01  -4.364083e-02  -1.030163e-01  -4.363647e-02  4.469709e-01  -8.550124e-01
2.888000e+00  2.622175e-01  -9.241825e-01  -1.027483e-01  -4.309658e-02  -1.027381e-01  -4.309228e-02  4.441594e-01  -8.565347e-01
2.888500e+00  2.588655e-01  -9.251810e-01  -1.024696e-01  -4.255637e-02  -1.024594e-01  -4.255212e-02  4.413465e-01  -8.580451e-01
2.889000e+00  2.555151e-01  -9.261652e-01  -1.021904e-01  -4.202016e-02  -1.021802e-01  -4.201596e-02  4.385325e-01  -8.595435e-01
2.889500e+00  2.521662e-01  -9.271352e-01  -1.019107e-01  -4.148792e-02  -1.019005e-01  -4.148378e-02  4.357173e-01  -8.610299e-01
2.890000e+00  2.488191e-01  -9.280910e-01  -1.016305e-01  -4.095964e-02  -1.016204e-01  -4.095555e-02  4.329009e-01  -8.625045e-01
2.890500e+00  2.454736e-01  -9.290327e-01  -1.013499e-01  -4.043528e-02  -1.013398e-01  -4.043124e-02  4.300834e-01  -8.639672e-01
2.891000e+00  2.421298e-01  -9.299604e-01  -1.010689e-01  -3.991482e-02  -1.010589e-01  -3.991084e-02  4.272649e-01  -8.654181e-01
2.891500e+00  2.387879e-01  -9.308740e-01  -1.007875e-01  -3.939824e-02  -1.007775e-01  -3.939431e-02  4.244454e-01  -8.668572e-01
2.892000e+00  2.354478e-01  -9.317737e-01  -1.005057e-01  -3.888551e-02  -1.004957e-01  -3.888163e-02  4.216249e-01  -8.682846e-01
2.892500e+00  2.321095e-01  -9.326594e-01  -1.002235e-01  -3.837661e-02  -1.002136e-01  -3.837278e-02  4.188035e-01  -8.697002e-01
2.893000e+00  2.287732e-01  -9.335314e-01  -9.994098e-02  -3.787151e-02  -9.993107e-02  -3.786772e-02  4.159812e-01  -8.711042e-01
2.893500e+00  2.254389e-01  -9.343895e-01  -9.965814e-02  -3.737018e-02  -9.964825e-02  -3.736645e-02  4.131580e-01  -8.724966e-01
2.894000e+00  2.221066e-01  -9.352339e-01  -9.937499e-02  -3.687261e-02  -9.936513e-02  -3.686892e-02  4.103341e-01  -8.738773e-01
2.894500e+00  2.187764e-01  -9.360646e-01  -9.909154e-02  -3.637876e-02  -9.908171e-02  -3.637513e-02  4.075094e-01  -8.752465e-01
2.895000e+00  2.154483e-01  -9.368817e-01  -9.880781e-02  -3.588862e-02  -9.879801e-02  -3.588503e-02  4.046839e-01  -8.766041e-01
2.895500e+00  2.121223e-01  -9.376853e-01  -9.852382e-02  -3.540216e-02  -9.851405e-02  -3.539862e-02  4.018578e-01  -8.779503e-01
2.896000e+00  2.087985e-01  -9.384753e-01  -9.823959e-02  -3.491935e-02  -9.822984e-02  -3.491586e-02  3.990311e-01  -8.792849e-01
2.896500e+00  2.054770e-01  -9.392519e-01  -9.795512e-02  -3.444017e-02  -9.794540e-02  -3.443673e-02  3.962037e-01  -8.806082e-01
2.897000e+00  2.021577e-01  -9.400150e-01  -9.767044e-02  -3.396461e-02  -9.766075e-02  -3.396121e-02  3.933758e-01  -8.819200e-01
2.897500e+00  1.988408e-01  -9.407648e-01  -9.738556e-02  -3.349263e-02  -9.737590e-02  -3.348928e-02  3.905473e-01  -8.832205e-01
2.898000e+00  1.955262e-01  -9.415013e-01  -9.710050e-02  -3.302420e-02  -9.709087e-02  -3.302090e-02  3.877184e-01  -8.845096e-01
2.898500e+00  1.922140e-01  -9.422245e-01  -9.681527e-02  -3.255932e-02  -9.680566e-02  -3.255607e-02  3.848890e-01  -8.857875e-01
2.899000e+00  1.889043e-01  -9.429346e-01  -9.652989e-02  -3.209795e-02  -9.652031e-02  -3.209474e-02  3.820592e-01  -8.870541e-01
2.899500e+00  1.855971e-01  -9.436315e-01  -9.624436e-02  -3.164007e-02  -9.623481e-02  -3.163691e-02  3.792291e-01  -8.883094e-01
2.900000e+00  1.822924e-01  -9.443153e-01  -9.595871e-02  -3.118567e-02  -9.594919e-02  -3.118255e-02  3.763986e-01  -8.895536e-01
2.900500e+00  1.789903e-01  -9.449861e-01  -9.567296e-02  -3.073470e-02  -9.566346e-02  -3.073163e-02  3.735678e-01  -8.907866e-01
2.901000e+00  1.756908e-01  -9.456439e-01  -9.538710e-02  -3.028716e-02  -9.537764e-02  -3.028414e-02  3.707367e-01  -8.920085e-01
2.901500e+00  1.723939e-01  -9.462888e-01  -9.510116e-02  -2.984303e-02  -9.509173e-02  -2.984004e-02  3.679054e-01  -8.932193e-01
2.902000e+00  1.690997e-01  -9.469208e-01  -9.481516e-02  -2.940227e-02  -9.480575e-02  -2.939933e-02  3.650740e-01  -8.944190e-01
2.902500e+00  1.658083e-01  -9.475399e-01  -9.452910e-02  -2.896486e-02  -9.451972e-02  -2.896197e-02  3.622423e-01  -8.956078e-01
2.903000e+00  1.625195e-01  -9.481463e-01  -9.424299e-02  -2.853079e-02  -9.423364e-02  -2.852794e-02  3.594106e-01  -8.967855e-01
2.903500e+00  1.592336e-01  -9.487400e-01  -9.395686e-02  -2.810004e-02  -9.394753e-02  -2.809722e-02  3.565788e-01  -8.979523e-01
2.904000e+00  1.559506e-01  -9.493210e-01  -9.367070e-02  -2.767257e-02  -9.366141e-02  -2.766980e-02  3.537469e-01  -8.991081e-01
2.904500e+00  1.526704e-01  -9.498894e-01  -9.338455e-02  -2.724837e-02  -9.337528e-02  -2.724564e-02  3.509150e-01  -9.002531e-01
2.905000e+00  1.493931e-01  -9.504452e-01  -9.309840e-02  -2.682742e-02  -9.308916e-02  -2.682473e-02  3.480831e-01  -9.013872e-01
2.905500e+00  1.461187e-01  -9.509885e-01  -9.281227e-02  -2.640969e-02  -9.280306e-02  -2.640704e-02  3.452513e-01  -9.025105e-01
2.906000e+00  1.428474e-01  -9.515194e-01  -9.252617e-02  -2.599516e-02  -9.251699e-02  -2.599256e-02  3.424196e-01  -9.036229e-01
2.906500e+00  1.395790e-01  -9.520378e-01  -9.224012e-02  -2.558382e-02  -9.223097e-02  -2.558126e-02  3.395880e-01  -9.047247e-01
2.907000e+00  1.363137e-01  -9.525439e-01  -9.195413e-02  -2.517564e-02  -9.194500e-02  -2.517312e-02  3.367565e-01  -9.058157e-01
2.907500e+00  1.330515e-01  -9.530376e-01  -9.166820e-02  -2.477060e-02  -9.165910e-02  -2.476812e-02  3.339253e-01  -9.068960e-01
2.908000e+00  1.297923e-01  -9.535191e-01  -9.138234e-02  -2.436868e-02  -9.137328e-02  -2.436624e-02  3.310942e-01  -9.079657e-01
2.908500e+00  1.265364e-01  -9.539884e-01  -9.109658e-02  -2.396986e-02  -9.108754e-02  -2.396746e-02  3.282634e-01  -9.090247e-01
2.909000e+00  1.232836e-01  -9.544455e-01  -9.081092e-02  -2.357412e-02  -9.080191e-02  -2.357176e-02  3.254329e-01  -9.100731e-01
2.909500e+00  1.200341e-01  -9.548906e-01  -9.052537e-02  -2.318143e-02  -9.051639e-02  -2.317911e-02  3.226027e-01  -9.111110e-01
2.910000e+00  1.167878e-01  -9.553235e-01  -9.023994e-02  -2.279179e-02  -9.023099e-02  -2.278950e-02  3.197729e-01  -9.121383e-01
2.910500e+00  1.135447e-01  -9.557445e-01  -8.995465e-02  -2.240515e-02  -8.994572e-02  -2.240291e-02  3.169435e-01  -9.131552e-01
2.911000e+00  1.103050e-01  -9.561535e-01  -8.966949e-02  -2.202152e-02  -8.966059e-02  -2.201931e-02  3.141144e-01  -9.141616e-01
2.911500e+00  1.070687e-01  -9.565506e-01  -8.938449e-02  -2.164086e-02  -8.937562e-02  -2.163869e-02  3.112858e-01  -9.151575e-01
2.912000e+00  1.038357e-01  -9.569358e-01  -8.909965e-02  -2.126316e-02  -8.909081e-02  -2.126103e-02  3.084577e-01  -9.161431e-01
2.912500e+00  1.006061e-01  -9.573092e-01  -8.881498e-02  -2.088840e-02  -8.880617e-02  -2.088630e-02  3.056301e-01  -9.171183e-01
2.913000e+00  9.737995e-02  -9.576708e-01  -8.853050e-02  -2.051655e-02  -8.852171e-02  -2.051449e-02  3.028030e-01  -9.180831e-01
2.913500e+00  9.415727e-02  -9.580208e-01  -8.824620e-02  -2.014760e-02  -8.823745e-02  -2.014558e-02  2.999765e-01  -9.190377e-01
2.914000e+00  9.093810e-02  -9.583591e-01  -8.796211e-02  -1.978153e-02  -8.795338e-02  -1.977955e-02  2.971506e-01  -9.199819e-01
2.914500e+00  8.772246e-02  -9.586857e-01  -8.767823e-02  -1.941832e-02  -8.766952e-02  -1.941637e-02  2.943253e-01  -9.209160e-01
2.915000e+00  8.451038e-02  -9.590008e-01  -8.739456e-02  -1.905795e-02  -8.738589e-02  -1.905604e-02  2.915007e-01  -9.218398e-01
2.915500e+00  8.130188e-02  -9.593044e-01  -8.711112e-02  -1.870040e-02  -8.710248e-02  -1.869852e-02  2.886768e-01  -9.227534e-01
2.916000e+00  7.809701e-02  -9.595965e-01  -8.682792e-02  -1.834565e-02  -8.681931e-02  -1.834381e-02  2.858535e-01  -9.236569e-01
2.916500e+00  7.489577e-02  -9.598772e-01  -8.654497e-02  -1.799368e-02  -8.653638e-02  -1.799187e-02  2.830310e-01  -9.245503e-01
2.917000e+00  7.169822e-02  -9.601465e-01  -8.626227e-02  -1.764448e-02  -8.625371e-02  -1.764271e-02  2.802093e-01  -9.254336e-01
2.917500e+00  6.850436e-02  -9.604045e-01  -8.597983e-02  -1.729802e-02  -8.597129e-02  -1.729628e-02  2.773884e-01  -9.263069e-01
2.918000e+00  6.531423e-02  -9.606513e-01  -8.569766e-02  -1.695429e-02  -8.568915e-02  -1.695259e-02  2.745683e-01  -9.271701e-01
2.918500e+00  6.212786e-02  -9.608867e-01  -8.541576e-02  -1.661327e-02  -8.540729e-02  -1.661160e-02  2.717491e-01  -9.280234e-01
2.919000e+00  5.894527e-02  -9.611111e-01  -8.513416e-02  -1.627494e-02  -8.512571e-02  -1.627330e-02  2.689307e-01  -9.288666e-01
2.919500e+00  5.576650e-02  -9.613242e-01  -8.485285e-02  -1.593928e-02  -8.484442e-02  -1.593768e-02  2.661133e-01  -9.297000e-01
2.920000e+00  5.259156e-02  -9.615263e-01  -8.457183e-02  -1.560628e-02  -8.456344e-02  -1.560471e-02  2.632968e-01  -9.305234e-01
2.920500e+00  4.942048e-02  -9.617174e-01  -8.429113e-02  -1.527591e-02  -8.428277e-02  -1.527437e-02  2.604813e-01  -9.313370e-01
2.921000e+00  4.625330e-02  -9.618974e-01  -8.401075e-02  -1.494816e-02  -8.400241e-02  -1.494665e-02  2.576667e-01  -9.321408e-01
2.921500e+00  4.309003e-02  -9.620666e-01  -8.373068e-02  -1.462301e-02  -8.372237e-02  -1.462154e-02  2.548532e-01  -9.329347e-01
2.922000e+00  3.993069e-02  -9.622248e-01  -8.345095e-02  -1.430044e-02  -8.344267e-02  -1.429900e-02  2.520407e-01  -9.337189e-01
2.922500e+00  3.677533e-02  -9.623721e-01  -8.317156e-02  -1.398044e-02  -8.316330e-02  -1.397903e-02  2.492293e-01  -9.344934e-01
2.923000e+00  3.362395e-02  -9.625087e-01  -8.289251e-02  -1.366299e-02  -8.288428e-02  -1.366161e-02  2.464190e-01  -9.352581e-01
2.923500e+00  3.047659e-02  -9.626345e-01  -8.261381e-02  -1.334806e-02  -8.260561e-02  -1.334672e-02  2.436098e-01  -9.360131e-01
2.924000e+00  2.733327e-02  -9.627496e-01  -8.233547e-02  -1.303565e-02  -8.232730e-02  -1.303434e-02  2.408018e-01  -9.367585e-01
2.924500e+00  2.419402e-02  -9.628540e-01  -8.205750e-02  -1.272574e-02  -8.204935e-02  -1.272446e-02  2.379949e-01  -9.374943e-01
2.925000e+00  2.105885e-02  -9.629478e-01  -8.177989e-02  -1.241831e-02  -8.177178e-02  -1.241706e-02  2.351893e-01  -9.382204e-01
2.925500e+00  1.792779e-02  -9.630310e-01  -8.150267e-02  -1.211334e-02  -8.149458e-02  -1.211212e-02  2.323848e-01  -9.389370e-01
2.926000e+00  1.480086e-02  -9.631037e-01  -8.122583e-02  -1.181081e-02  -8.121776e-02  -1.180962e-02  2.295816e-01  -9.396441e-01
2.926500e+00  1.167810e-02  -9.631659e-01  -8.094937e-02  -1.151072e-02  -8.094134e-02  -1.150956e-02  2.267797e-01  -9.403417e-01
2.927000e+00  8.559509e-03  -9.632177e-01  -8.067332e-02  -1.121303e-02  -8.066531e-02  -1.121190e-02  2.239791e-01  -9.410298e-01
2.927500e+00  5.445123e-03  -9.632591e-01  -8.039766e-02  -1.091775e-02  -8.038968e-02  -1.091664e-02  2.211798e-01  -9.417084e-01
2.928000e+00  2.334963e-03  -9.632901e-01  -8.012241e-02  -1.062484e-02  -8.011446e-02  -1.062377e-02  2.183819e-01  -9.423777e-01
2.928500e+00  -7.709511e-04  -9.633108e-01  -7.984758e-02  -1.033430e-02  -7.983965e-02  -1.033325e-02  2.155853e-01  -9.430375e-01
2.929000e+00  -3.872596e-03  -9.633213e-01  -7.957316e-02  -1.004610e-02  -7.956526e-02  -1.004508e-02  2.127902e-01  -9.436880e-01
2.929500e+00  -6.969951e-03  -9.633215e-01  -7.929917e-02  -9.760235e-03  -7.929130e-02  -9.759248e-03  2.099964e-01  -9.443292e-01
2.930000e+00  -1.006300e-02  -9.633116e-01  -7.902561e-02  -9.476686e-03  -7.901776e-02  -9.475727e-03  2.072041e-01  -9.449611e-01
2.930500e+00  -1.315171e-02  -9.632916e-01  -7.875248e-02  -9.195436e-03  -7.874466e-02  -9.194505e-03  2.044133e-01  -9.455837e-01
2.931000e+00  -1.623606e-02  -9.632614e-01  -7.847979e-02  -8.916470e-03  -7.847200e-02  -8.915567e-03  2.016239e-01  -9.461971e-01
2.931500e+00  -1.931605e-02  -9.632213e-01  -7.820755e-02  -8.639773e-03  -7.819979e-02  -8.638897e-03  1.988361e-01  -9.468013e-01
2.932000e+00  -2.239164e-02  -9.631711e-01  -7.793576e-02  -8.365328e-03  -7.792802e-02  -8.364480e-03  1.960498e-01  -9.473963e-01
2.932500e+00  -2.546281e-02  -9.631110e-01  -7.766442e-02  -8.093121e-03  -7.765671e-02  -8.092299e-03  1.932650e-01  -9.479821e-01
2.933000e+00  -2.852955e-02  -9.630410e-01  -7.739355e-02  -7.823135e-03  -7.738586e-02  -7.822341e-03  1.904819e-01  -9.485589e-01
2.933500e+00  -3.159184e-02  -9.629611e-01  -7.712314e-02  -7.555356e-03  -7.711548e-02  -7.554588e-03  1.877003e-01  -9.491265e-01
2.934000e+00  -3.464966e-02  -9.628714e-01  -7.685319e-02  -7.289769e-03  -7.684556e-02  -7.289028e-03  1.849204e-01  -9.496851e-01
2.934500e+00  -3.770298e-02  -9.627719e-01  -7.658372e-02  -7.026358e-03  -7.657612e-02  -7.025643e-03  1.821421e-01  -9.502346e-01
2.935000e+00  -4.075179e-02  -9.626627e-01  -7.631473e-02  -6.765109e-03  -7.630715e-02  -6.764420e-03  1.793655e-01  -9.507751e-01
2.935500e+00  -4.379606e-02  -9.625438e-01  -7.604622e-02  -6.506007e-03  -7.603867e-02  -6.505343e-03  1.765905e-01  -9.513067e-01
2.936000e+00  -4.683579e-02  -9.624153e-01  -7.577820e-02  -6.249036e-03  -7.577068e-02  -6.248399e-03  1.738173e-01  -9.518293e-01
2.936500e+00  -4.987096e-02  -9.622771e-01  -7.551067e-02  -5.994183e-03  -7.550317e-02  -5.993571e-03  1.710458e-01  -9.523430e-01
2.937000e+00  -5.290153e-02  -9.621294e-01  -7.524363e-02  -5.741433e-03  -7.523616e-02  -5.740845e-03  1.682761e-01  -9.528478e-01
2.937500e+00  -5.592751e-02  -9.619722e-01  -7.497710e-02  -5.490771e-03  -7.496965e-02  -5.490208e-03  1.655081e-01  -9.533437e-01
2.938000e+00  -5.894886e-02  -9.618055e-01  -7.471107e-02  -5.242182e-03  -7.470365e-02  -5.241645e-03  1.627420e-01  -9.538308e-01
2.938500e+00  -6.196557e-02  -9.616293e-01  -7.444554e-02  -4.995654e-03  -7.443815e-02  -4.995140e-03  1.599776e-01  -9.543091e-01
2.939000e+00  -6.497763e-02  -9.614438e-01  -7.418052e-02  -4.751170e-03  -7.417316e-02  -4.750681e-03  1.572151e-01  -9.547786e-01
2.939500e+00  -6.798501e-02  -9.612489e-01  -7.391602e-02  -4.508718e-03  -7.390868e-02  -4.508253e-03  1.544545e-01  -9.552393e-01
2.940000e+00  -7.098771e-02  -9.610447e-01  -7.365204e-02  -4.268283e-03  -7.364473e-02  -4.267842e-03  1.516957e-01  -9.556914e-01
2.940500e+00  -7.398570e-02  -9.608312e-01  -7.338858e-02  -4.029852e-03  -7.338129e-02  -4.029435e-03  1.489388e-01  -9.561347e-01
2.941000e+00  -7.697896e-02  -9.606085e-01  -7.312564e-02  -3.793410e-03  -7.311838e-02  -3.793016e-03  1.461839e-01  -9.565694e-01
2.941500e+00  -7.996749e-02  -9.603767e-01  -7.286323e-02  -3.558943e-03  -7.285600e-02  -3.558573e-03  1.434308e-01  -9.569954e-01
2.942000e+00  -8.295126e-02  -9.601356e-01  -7.260136e-02  -3.326439e-03  -7.259415e-02  -3.326092e-03  1.406798e-01  -9.574128e-01
2.942500e+00  -8.593026e-02  -9.598855e-01  -7.234002e-02  -3.095883e-03  -7.233283e-02  -3.095559e-03  1.379307e-01  -9.578217e-01
2.943000e+00  -8.890447e-02  -9.596263e-01  -7.207922e-02  -2.867262e-03  -7.207206e-02  -2.866961e-03  1.351836e-01  -9.582219e-01
2.943500e+00  -9.187388e-02  -9.593581e-01  -7.181895e-02  -2.640563e-03  -7.181182e-02  -2.640284e-03  1.324385e-01  -9.586137e-01
2.944000e+00  -9.483847e-02  -9.590809e-01  -7.155924e-02  -2.415772e-03  -7.155213e-02  -2.415516e-03  1.296955e-01  -9.589969e-01
2.944500e+00  -9.779823e-02  -9.587948e-01  -7.130007e-02  -2.192877e-03  -7.129299e-02  -2.192642e-03  1.269545e-01  -9.593717e-01
2.945000e+00  -1.007531e-01  -9.584998e-01  -7.104145e-02  -1.971863e-03  -7.103440e-02  -1.971651e-03  1.242156e-01  -9.597380e-01
2.945500e+00  -1.037032e-01  -9.581959e-01  -7.078339e-02  -1.752718e-03  -7.077636e-02  -1.752528e-03  1.214787e-01  -9.600959e-01
2.946000e+00  -1.066484e-01  -9.578832e-01  -7.052588e-02  -1.535429e-03  -7.051887e-02  -1.535260e-03  1.187440e-01  -9.604454e-01
2.946500e+00  -1.095886e-01  -9.575617e-01  -7.026893e-02  -1.319983e-03  -7.026195e-02  -1.319836e-03  1.160114e-01  -9.607866e-01
2.947000e+00  -1.125240e-01  -9.572315e-01  -7.001254e-02  -1.106368e-03  -7.000559e-02  -1.106242e-03  1.132810e-01  -9.611194e-01
2.947500e+00  -1.154545e-01  -9.568926e-01  -6.975671e-02  -8.945699e-04  -6.974979e-02  -8.944649e-04  1.105527e-01  -9.614439e-01
2.948000e+00  -1.183800e-01  -9.565450e-01  -6.950146e-02  -6.845768e-04  -6.949455e-02  -6.844928e-04  1.078266e-01  -9.617601e-01
2.948500e+00  -1.213006e-01  -9.561889e-01  -6.924677e-02  -4.763762e-04  -6.923989e-02  -4.763128e-04  1.051027e-01  -9.620680e-01
2.949000e+00  -1.242162e-01  -9.558241e-01  -6.899265e-02  -2.699554e-04  -6.898580e-02  -2.699126e-04  1.023810e-01  -9.623677e-01
2.949500e+00  -1.271268e-01  -9.554508e-01  -6.873910e-02  -6.530217e-05  -6.873228e-02  -6.527973e-05  9.966155e-02  -9.626592e-01
2.950000e+00  -1.300325e-01  -9.550690e-01  -6.848614e-02  1.375958e-04  -6.847934e-02  1.375981e-04  9.694435e-02  -9.629425e-01
2.950500e+00  -1.329331e-01  -9.546787e-01  -6.823375e-02  3.387508e-04  -6.822697e-02  3.387331e-04  9.422942e-02  -9.632177e-01
2.951000e+00  -1.358287e-01  -9.542800e-01  -6.798194e-02  5.381750e-04  -6.797519e-02  5.381373e-04  9.151677e-02  -9.634848e-01
2.951500e+00  -1.387194e-01  -9.538729e-01  -6.773071e-02  7.358803e-04  -6.772399e-02  7.358230e-04  8.880642e-02  -9.637437e-01
2.952000e+00  -1.416049e-01  -9.534575e-01  -6.748007e-02  9.318789e-04  -6.747337e-02  9.318020e-04  8.609839e-02  -9.639946e-01
2.952500e+00  -1.444855e-01  -9.530337e-01  -6.723002e-02  1.126183e-03  -6.722334e-02  1.126086e-03  8.339270e-02  -9.642374e-01
2.953000e+00  -1.473609e-01  -9.526017e-01  -6.698055e-02  1.318803e-03  -6.697390e-02  1.318688e-03  8.068936e-02  -9.644722e-01
2.953500e+00  -1.502313e-01  -9.521615e-01  -6.673167e-02  1.509752e-03  -6.672505e-02  1.509618e-03  7.798839e-02  -9.646991e-01
2.954000e+00  -1.530966e-01  -9.517131e-01  -6.648339e-02  1.699042e-03  -6.647679e-02  1.698889e-03  7.528981e-02  -9.649179e-01
2.954500e+00  -1.559568e-01  -9.512565e-01  -6.623570e-02  1.886683e-03  -6.622912e-02  1.886511e-03  7.259362e-02  -9.651288e-01
2.955000e+00  -1.588119e-01  -9.507918e-01  -6.598861e-02  2.072688e-03  -6.598205e-02  2.072498e-03  6.989986e-02  -9.653318e-01
2.955500e+00  -1.616619e-01  -9.503190e-01  -6.574211e-02  2.257068e-03  -6.573558e-02  2.256859e-03  6.720853e-02  -9.655269e-01
2.956000e+00  -1.645067e-01  -9.498382e-01  -6.549622e-02  2.439834e-03  -6.548971e-02  2.439607e-03  6.451965e-02  -9.657141e-01
2.956500e+00  -1.673464e-01  -9.493494e-01  -6.525092e-02  2.620998e-03  -6.524444e-02  2.620753e-03  6.183323e-02  -9.658935e-01
2.957000e+00  -1.701810e-01  -9.488526e-01  -6.500623e-02  2.800570e-03  -6.499977e-02  2.800308e-03  5.914930e-02  -9.660651e-01
2.957500e+00  -1.730104e-01  -9.483479e-01  -6.476214e-02  2.978563e-03  -6.475571e-02  2.978282e-03  5.646786e-02  -9.662289e-01
2.958000e+00  -1.758346e-01  -9.478353e-01  -6.451866e-02  3.154986e-03  -6.451225e-02  3.154688e-03  5.378893e-02  -9.663849e-01
2.958500e+00  -1.786536e-01  -9.473148e-01  -6.427578e-02  3.329852e-03  -6.426939e-02  3.329536e-03  5.111253e-02  -9.665332e-01
2.959000e+00  -1.814674e-01  -9.467865e-01  -6.403351e-02  3.503170e-03  -6.402715e-02  3.502837e-03  4.843867e-02  -9.666738e-01
2.959500e+00  -1.842761e-01  -9.462504e-01  -6.379185e-02  3.674952e-03  -6.378551e-02  3.674602e-03  4.576737e-02  -9.668067e-01
2.960000e+00  -1.870795e-01  -9.457066e-01  -6.355080e-02  3.845209e-03  -6.354449e-02  3.844842e-03  4.309865e-02  -9.669319e-01
2.960500e+00  -1.898777e-01  -9.451551e-01  -6.331037e-02  4.013951e-03  -6.330408e-02  4.013567e-03  4.043250e-02  -9.670495e-01
2.961000e+00  -1.926706e-01  -9.445960e-01  -6.307054e-02  4.181189e-03  -6.306428e-02  4.180788e-03  3.776896e-02  -9.671595e-01
2.961500e+00  -1.954583e-01  -9.440291e-01  -6.283133e-02  4.346933e-03  -6.282509e-02  4.346516e-03  3.510804e-02  -9.672619e-01
2.962000e+00  -1.982408e-01  -9.434547e-01  -6.259274e-02  4.511194e-03  -6.258652e-02  4.510761e-03  3.244975e-02  -9.673568e-01
2.962500e+00  -2.010180e-01  -9.428727e-01  -6.235476e-02  4.673983e-03  -6.234857e-02  4.673533e-03  2.979410e-02  -9.674441e-01
2.963000e+00  -2.037899e-01  -9.422832e-01  -6.211740e-02  4.835309e-03  -6.211123e-02  4.834844e-03  2.714111e-02  -9.675239e-01
2.963500e+00  -2.065566e-01  -9.416862e-01  -6.188066e-02  4.995184e-03  -6.187452e-02  4.994702e-03  2.449079e-02  -9.675962e-01
2.964000e+00  -2.093179e-01  -9.410818e-01  -6.164454e-02  5.153617e-03  -6.163842e-02  5.153120e-03  2.184317e-02  -9.676610e-01
2.964500e+00  -2.120740e-01  -9.404699e-01  -6.140904e-02  5.310618e-03  -6.140294e-02  5.310105e-03  1.919824e-02  -9.677185e-01
2.965000e+00  -2.148247e-01  -9.398507e-01  -6.117416e-02  5.466198e-03  -6.116808e-02  5.465669e-03  1.655603e-02  -9.677685e-01
2.965500e+00  -2.175702e-01  -9.392241e-01  -6.093990e-02  5.620366e-03  -6.093385e-02  5.619822e-03  1.391654e-02  -9.678111e-01
2.966000e+00  -2.203103e-01  -9.385902e-01  -6.070626e-02  5.773133e-03  -6.070023e-02  5.772574e-03  1.127980e-02  -9.678464e-01
2.966500e+00  -2.230451e-01  -9.379490e-01  -6.047325e-02  5.924509e-03  -6.046724e-02  5.923934e-03  8.645814e-03  -9.678743e-01
2.967000e+00  -2.257745e-01  -9.373005e-01  -6.024086e-02  6.074502e-03  -6.023488e-02  6.073913e-03  6.014597e-03  -9.678949e-01
2.967500e+00  -2.284986e-01  -9.366449e-01  -6.000910e-02  6.223124e-03  -6.000314e-02  6.222520e-03  3.386162e-03  -9.679082e-01
2.968000e+00  -2.312174e-01  -9.359821e-01  -5.977796e-02  6.370383e-03  -5.977202e-02  6.369764e-03  7.605232e-04  -9.679143e-01
2.968500e+00  -2.339308e-01  -9.353121e-01  -5.954745e-02  6.516289e-03  -5.954153e-02  6.515656e-03  -1.862308e-03  -9.679131e-01
2.969000e+00  -2.366388e-01  -9.346351e-01  -5.931756e-02  6.660852e-03  -5.931167e-02  6.660205e-03  -4.482317e-03  -9.679047e-01
2.969500e+00  -2.393414e-01  -9.339510e-01  -5.908831e-02  6.804082e-03  -5.908244e-02  6.803420e-03  -7.099492e-03  -9.678891e-01
2.970000e+00  -2.420387e-01  -9.332598e-01  -5.885968e-02  6.945988e-03  -5.885383e-02  6.945312e-03  -9.713820e-03  -9.678663e-01
2.970500e+00  -2.447306e-01  -9.325616e-01  -5.863167e-02  7.086578e-03  -5.862585e-02  7.085888e-03  -1.232529e-02  -9.678364e-01
2.971000e+00  -2.474170e-01  -9.318565e-01  -5.840430e-02  7.225864e-03  -5.839850e-02  7.225160e-03  -1.493389e-02  -9.677994e-01
2.971500e+00  -2.500981e-01  -9.311445e-01  -5.817755e-02  7.363853e-03  -5.817177e-02  7.363135e-03  -1.753960e-02  -9.677553e-01
2.972000e+00  -2.527738e-01  -9.304255e-01  -5.795144e-02  7.500554e-03  -5.794568e-02  7.499823e-03  -2.014241e-02  -9.677041e-01
2.972500e+00  -2.554440e-01  -9.296997e-01  -5.772595e-02  7.635978e-03  -5.772022e-02  7.635234e-03  -2.274232e-02  -9.676459e-01
2.973000e+00  -2.581088e-01  -9.289670e-01  -5.750110e-02  7.770133e-03  -5.749538e-02  7.769375e-03  -2.533930e-02  -9.675806e-01
2.973500e+00  -2.607682e-01  -9.282276e-01  -5.727687e-02  7.903029e-03  -5.727118e-02  7.902257e-03  -2.793335e-02  -9.675084e-01
2.974000e+00  -2.634222e-01  -9.274814e-01  -5.705328e-02  8.034673e-03  -5.704761e-02  8.033888e-03  -3.052446e-02  -9.674291e-01
2.974500e+00  -2.660707e-01  -9.267284e-01  -5.683031e-02  8.165075e-03  -5.682467e-02  8.164278e-03  -3.311261e-02  -9.673430e-01
2.975000e+00  -2.687137e-01  -9.259688e-01  -5.660798e-02  8.294244e-03  -5.660235e-02  8.293434e-03  -3.569779e-02  -9.672498e-01
2.975500e+00  -2.713514e-01  -9.252025e-01  -5.638628e-02  8.422189e-03  -5.638067e-02  8.421366e-03  -3.827998e-02  -9.671498e-01
2.976000e+00  -2.739835e-01  -9.244295e-01  -5.616520e-02  8.548918e-03  -5.615962e-02  8.548082e-03  -4.085919e-02  -9.670429e-01
2.976500e+00  -2.766102e-01  -9.236500e-01  -5.594476e-02  8.674439e-03  -5.593921e-02  8.673591e-03  -4.343539e-02  -9.669292e-01
2.977000e+00  -2.792314e-01  -9.228639e-01  -5.572495e-02  8.798763e-03  -5.571942e-02  8.797902e-03  -4.600858e-02  -9.668086e-01
2.977500e+00  -2.818472e-01  -9.220713e-01  -5.550578e-02  8.921896e-03  -5.550026e-02  8.921023e-03  -4.857874e-02  -9.666812e-01
2.978000e+00  -2.844574e-01  -9.212721e-01  -5.528723e-02  9.043848e-03  -5.528174e-02  9.042963e-03  -5.114587e-02  -9.665470e-01
2.978500e+00  -2.870622e-01  -9.204665e-01  -5.506932e-02  9.164627e-03  -5.506384e-02  9.163730e-03  -5.370994e-02  -9.664060e-01
2.979000e+00  -2.896615e-01  -9.196545e-01  -5.485203e-02  9.284241e-03  -5.484658e-02  9.283332e-03  -5.627096e-02  -9.662583e-01
2.979500e+00  -2.922553e-01  -9.188360e-01  -5.463538e-02  9.402699e-03  -5.462995e-02  9.401778e-03  -5.882890e-02  -9.661039e-01
2.980000e+00  -2.948436e-01  -9.180112e-01  -5.441936e-02  9.520008e-03  -5.441395e-02  9.519076e-03  -6.138377e-02  -9.659427e-01
2.980500e+00  -2.974263e-01  -9.171801e-01  -5.420397e-02  9.636178e-03  -5.419858e-02  9.635234e-03  -6.393554e-02  -9.657749e-01
2.981000e+00  -3.000036e-01  -9.163426e-01  -5.398921e-02  9.751216e-03  -5.398385e-02  9.750260e-03  -6.648421e-02  -9.656005e-01
2.981500e+00  -3.025754e-01  -9.154989e-01  -5.377508e-02  9.865130e-03  -5.376974e-02  9.864163e-03  -6.902976e-02  -9.654194e-01
2.982000e+00  -3.051416e-01  -9.146489e-01  -5.356159e-02  9.977929e-03  -5.355626e-02  9.976951e-03  -7.157219e-02  -9.652317e-01
2.982500e+00  -3.077023e-01  -9.137927e-01  -5.334872e-02  1.008962e-02  -5.334342e-02  1.008863e-02  -7.411149e-02  -9.650375e-01
2.983000e+00  -3.102575e-01  -9.129303e-01  -5.313648e-02  1.020021e-02  -5.313120e-02  1.019921e-02  -7.664764e-02  -9.648366e-01
2.983500e+00  -3.128072e-01  -9.120618e-01  -5.292487e-02  1.030971e-02  -5.291962e-02  1.030870e-02  -7.918064e-02  -9.646293e-01
2.984000e+00  -3.153513e-01  -9.111871e-01  -5.271390e-02  1.041813e-02  -5.270866e-02  1.041710e-02  -8.171047e-02  -9.644154e-01
2.984500e+00  -3.178899e-01  -9.103064e-01  -5.250355e-02  1.052546e-02  -5.249833e-02  1.052443e-02  -8.423713e-02  -9.641950e-01
2.985000e+00  -3.204230e-01  -9.094196e-01  -5.229383e-02  1.063173e-02  -5.228863e-02  1.063069e-02  -8.676060e-02  -9.639682e-01
2.985500e+00  -3.229505e-01  -9.085268e-01  -5.208474e-02  1.073694e-02  -5.207957e-02  1.073589e-02  -8.928088e-02  -9.637349e-01
2.986000e+00  -3.254724e-01  -9.076280e-01  -5.187628e-02  1.084110e-02  -5.187112e-02  1.084004e-02  -9.179796e-02  -9.634952e-01
2.986500e+00  -3.279888e-01  -9.067232e-01  -5.166845e-02  1.094421e-02  -5.166331e-02  1.094314e-02  -9.431181e-02  -9.632491e-01
2.987000e+00  -3.304996e-01  -9.058125e-01  -5.146124e-02  1.104628e-02  -5.145613e-02  1.104520e-02  -9.682245e-02  -9.629966e-01
2.987500e+00  -3.330049e-01  -9.048959e-01  -5.125466e-02  1.114732e-02  -5.124957e-02  1.114623e-02  -9.932985e-02  -9.627377e-01
2.988000e+00  -3.355046e-01  -9.039734e-01  -5.104871e-02  1.124734e-02  -5.104364e-02  1.124624e-02  -1.018340e-01  -9.624725e-01
2.988500e+00  -3.379988e-01  -9.030451e-01  -5.084338e-02  1.134635e-02  -5.083833e-02  1.134523e-02  -1.043349e-01  -9.622010e-01
2.989000e+00  -3.404874e-01  -9.021109e-01  -5.063868e-02  1.144434e-02  -5.063365e-02  1.144321e-02  -1.068326e-01  -9.619232e-01
2.989500e+00  -3.429704e-01  -9.011710e-01  -5.043461e-02  1.154133e-02  -5.042960e-02  1.154020e-02  -1.093269e-01  -9.616392e-01
2.990000e+00  -3.454478e-01  -9.002253e-01  -5.023116e-02  1.163733e-02  -5.022617e-02  1.163618e-02  -1.118180e-01  -9.613488e-01
2.990500e+00  -3.479197e-01  -8.992739e-01  -5.002833e-02  1.173234e-02  -5.002336e-02  1.173119e-02  -1.143058e-01  -9.610523e-01
2.991000e+00  -3.503860e-01  -8.983169e-01  -4.982613e-02  1.182637e-02  -4.982118e-02  1.182521e-02  -1.167903e-01  -9.607495e-01
2.991500e+00  -3.528467e-01  -8.973541e-01  -4.962455e-02  1.191943e-02  -4.961962e-02  1.191826e-02  -1.192715e-01  -9.604406e-01
2.992000e+00  -3.553018e-01  -8.963857e-01  -4.942360e-02  1.201152e-02  -4.941868e-02  1.201034e-02  -1.217494e-01  -9.601255e-01
2.992500e+00  -3.577513e-01  -8.954117e-01  -4.922326e-02  1.210265e-02  -4.921837e-02  1.210146e-02  -1.242240e-01  -9.598043e-01
2.993000e+00  -3.601953e-01  -8.944322e-01  -4.902355e-02  1.219284e-02  -4.901868e-02  1.219164e-02  -1.266952e-01  -9.594769e-01
2.993500e+00  -3.626336e-01  -8.934471e-01  -4.882446e-02  1.228207e-02  -4.881960e-02  1.228086e-02  -1.291631e-01  -9.591435e-01
2.994000e+00  -3.650664e-01  -8.924565e-01  -4.862598e-02  1.237037e-02  -4.862115e-02  1.236915e-02  -1.316276e-01  -9.588039e-01
2.994500e+00  -3.674936e-01  -8.914604e-01  -4.842813e-02  1.245774e-02  -4.842332e-02  1.245651e-02  -1.340888e-01  -9.584584e-01
2.995000e+00  -3.699151e-01  -8.904588e-01  -4.823090e-02  1.254418e-02  -4.822610e-02  1.254295e-02  -1.365466e-01  -9.581067e-01
2.995500e+00  -3.723311e-01  -8.894518e-01  -4.803428e-02  1.262970e-02  -4.802951e-02  1.262846e-02  -1.390010e-01  -9.577491e-01
2.996000e+00  -3.747415e-01  -8.884394e-01  -4.783828e-02  1.271432e-02  -4.783353e-02  1.271307e-02  -1.414521e-01  -9.573855e-01
2.996500e+00  -3.771462e-01  -8.874216e-01  -4.764290e-02  1.279803e-02  -4.763817e-02  1.279677e-02  -1.438998e-01  -9.570159e-01
2.997000e+00  -3.795454e-01  -8.863985e-01  -4.744814e-02  1.288084e-02  -4.744342e-02  1.287957e-02  -1.463440e-01  -9.566404e-01
2.997500e+00  -3.819390e-01  -8.853701e-01  -4.725398e-02  1.296275e-02  -4.724929e-02  1.296148e-02  -1.487849e-01  -9.562589e-01
2.998000e+00  -3.843269e-01  -8.843364e-01  -4.706045e-02  1.304379e-02  -4.705577e-02  1.304250e-02  -1.512223e-01  -9.558716e-01
2.998500e+00  -3.867093e-01  -8.832974e-01  -4.686752e-02  1.312394e-02  -4.686287e-02  1.312265e-02  -1.536563e-01  -9.554783e-01
2.999000e+00  -3.890860e-01  -8.822532e-01  -4.667521e-02  1.320322e-02  -4.667058e-02  1.320192e-02  -1.560869e-01  -9.550792e-01
2.999500e+00  -3.914571e-01  -8.812038e-01  -4.648352e-02  1.328164e-02  -4.647890e-02  1.328033e-02  -1.585140e-01  -9.546743e-01
3.000000e+00  -3.938227e-01  -8.801493e-01  -4.629243e-02  1.335920e-02  -4.628783e-02  1.335788e-02  -1.609377e-01  -9.542635e-01
